%%MatrixMarket matrix coordinate real general
%Complete acoustic radiance transfer reflection kernel, w.r.t. frequency band #4 (center freq. 1000.00Hz). Includes energy losses due to surface materials and air absorption over propagation paths.
208 208 2354
1 24 1.1098800066912139E-1
1 23 1.1101635143962371E-1
1 22 1.5342147428560385E-1
1 21 1.6377162728769815E-1
1 20 1.1102297483835416E-1
1 19 3.4788740794896356E-1
1 18 2.5325936083904665E-1
1 17 2.526909022591559E-1
1 16 2.2245404866921356E-1
1 15 2.2275945058631358E-1
1 14 2.2255142334780476E-1
1 13 4.022925648017403E-1
2 38 1.7470709230012793E-1
2 37 4.8598554498026425E-1
2 36 8.266351571550912E-2
2 35 1.5979223646936241E-1
2 34 1.725170098850124E-1
2 33 1.7879407487629068E-1
2 32 4.592956994558498E-1
2 31 8.299885219147067E-2
2 30 2.8948485127067436E-1
2 29 2.8907603391819375E-1
2 28 2.2008038398992605E-1
2 27 2.1820737259315867E-1
2 26 5.578580499416786E-1
2 25 8.341298534472821E-2
3 43 3.150774267682962E-1
3 42 1.7031395727345672E-1
3 41 2.1636094910487497E-1
3 40 5.528006698387933E-1
3 39 8.293714948343324E-2
4 48 1.4365660928399235E-1
4 47 3.1835797249562187E-1
4 46 2.0295414186054486E-1
4 45 5.163263346576368E-1
4 44 7.951971548615466E-2
5 57 1.87665397257632E-1
5 56 4.246742757527497E-1
5 55 7.905158570505262E-2
5 54 2.0626933767198039E-1
5 53 2.577520069071151E-1
5 52 1.9118764412262865E-1
5 51 2.4962301638556644E-1
5 50 4.948861046097753E-1
5 49 7.932395554993035E-2
6 66 1.3973787398923265E-1
6 65 3.191848363233049E-1
6 64 6.063204806873109E-2
6 63 2.0592645762031328E-1
6 62 1.8722822296455996E-1
6 61 2.544094381977278E-1
6 60 2.4876422330750944E-1
6 59 4.9485960558844716E-1
6 58 7.932387826840863E-2
7 94 1.1432093397664544E-2
7 93 2.7247667574756097E-2
7 92 1.1479171967254296E-2
7 91 1.6254009216894842E-2
7 90 3.2891896813101576E-2
7 89 3.179401677966181E-2
7 88 3.8780661917824075E-2
7 87 1.1531152438681849E-2
7 86 1.1530978353298955E-2
7 85 4.868406426014071E-2
7 84 1.147651741481863E-2
7 83 1.1487114466077536E-2
7 82 1.1471737795854997E-2
7 81 1.1493024626733633E-2
8 123 1.6518844064102303E-3
8 122 4.49539989528633E-3
8 121 2.9219229699061827E-3
8 120 1.6629013597188604E-3
8 119 4.360099829583887E-3
8 118 2.9710509207735054E-3
8 117 1.1674293391264582E-2
8 116 1.1177574830762937E-2
8 115 5.922211880480801E-3
8 114 1.6664302127858302E-3
8 113 1.0279940936519256E-2
8 112 2.6427174028803124E-2
8 111 1.6549665853818364E-3
9 138 3.760731897970662E-3
9 137 1.7791433040471535E-2
9 136 3.7632009123659714E-3
9 135 1.1544223783246984E-2
9 134 3.783907735219536E-3
9 133 1.1768575788560205E-2
9 132 1.7100365015864226E-2
9 131 3.7922002359464134E-3
9 130 3.804106313304465E-3
9 129 2.2371191824377006E-2
9 128 3.800776709976257E-3
9 127 3.77842639907211E-3
9 126 3.7744229659279625E-3
9 125 3.787824339500306E-3
9 124 3.787788182662101E-3
10 148 1.5539027513354873E-2
10 147 2.803771349047045E-2
10 146 5.044143502351232E-3
10 145 4.596823993930051E-3
10 144 2.73665180383157E-2
10 143 4.605713190420289E-3
10 142 4.5826100233387216E-3
10 141 4.57567294308144E-3
10 140 4.591777572561987E-3
10 139 4.591701616696914E-3
11 172 1.6331308615500014E-5
11 171 1.6331599750131394E-5
11 170 2.1882434693741616E-4
11 169 1.6334669241875926E-5
11 168 1.6304686016521962E-5
11 167 1.6268321286655725E-5
11 166 1.630358969181895E-5
11 165 1.626845054190757E-5
11 164 1.6255953306771386E-5
11 163 1.62847250608107E-5
11 162 1.618757570650325E-5
11 161 1.6224702704669646E-5
12 194 9.665885145975282E-5
12 193 9.648549019881995E-5
12 192 4.976799706675502E-4
12 191 2.9429936421466134E-4
12 190 9.66905102118548E-5
12 189 9.631399946639795E-5
12 188 9.625968337717084E-5
12 187 9.618328376022673E-5
12 186 9.654541388904523E-5
12 185 9.654858735477522E-5
12 184 9.577612979455172E-5
12 183 9.601574242960862E-5
12 182 9.601588055522103E-5
13 12 1.1097739627065246E-1
13 11 1.1100459337339968E-1
13 10 1.5164262786303456E-1
13 9 1.6336925911453432E-1
13 8 1.1101331326253304E-1
13 7 3.4698830008115167E-1
13 6 2.533063264783762E-1
13 5 2.528017358713152E-1
13 4 2.2250630453094725E-1
13 3 2.220808223379468E-1
13 2 2.2277967532800894E-1
13 1 4.023287213236718E-1
14 38 1.7153761078023574E-1
14 37 8.25201829314638E-2
14 36 4.6340945697098523E-1
14 35 1.6047604897785717E-1
14 34 1.7164558736021482E-1
14 33 1.7886752347417498E-1
14 32 8.285708655642436E-2
14 31 4.579682840986796E-1
14 30 2.866537410146307E-1
14 29 2.879711452452065E-1
14 28 2.1908519672958182E-1
14 27 2.1758875199171424E-1
14 26 8.32700287185703E-2
14 25 5.586664354688685E-1
15 43 3.138748454598144E-1
15 42 1.6876080381653571E-1
15 41 2.1490835258663032E-1
15 40 8.258559256797286E-2
15 39 5.493160440539536E-1
16 48 1.4261284294350868E-1
16 47 3.1871421066296607E-1
16 46 2.0278814312439336E-1
16 45 7.948040573633403E-2
16 44 5.13933817167919E-1
17 57 1.8691330837611286E-1
17 56 7.909401497604356E-2
17 55 4.254124560962735E-1
17 54 2.061983724927436E-1
17 53 2.5756884589462825E-1
17 52 1.9170211696911874E-1
17 51 2.4959313499236552E-1
17 50 7.936556275629539E-2
17 49 4.9562855662860733E-1
18 66 1.3956377964876532E-1
18 65 6.066262382145613E-2
18 64 3.2560975393061603E-1
18 63 2.0561111116101646E-1
18 62 1.867371853805273E-1
18 61 2.550930482401575E-1
18 60 2.4944283966417244E-1
18 59 7.93654680697735E-2
18 58 4.946762429563814E-1
19 80 1.1426413019613448E-2
19 79 2.7123327588610052E-2
19 78 1.1473653080681337E-2
19 77 1.4213909852804565E-2
19 76 2.9676384438991957E-2
19 75 2.8331084930942132E-2
19 74 3.444794539829496E-2
19 73 1.030428287827922E-2
19 72 1.0304775800444876E-2
19 71 4.347116737014307E-2
19 70 1.0256388788137682E-2
19 69 1.02655263120574E-2
19 68 1.0251892710409499E-2
19 67 1.027095372437321E-2
20 123 1.6427578364729544E-3
20 122 4.163441246792303E-3
20 121 1.6536953248766151E-3
20 120 2.8412004362672982E-3
20 119 4.311404869122957E-3
20 118 2.9163434803867673E-3
20 117 1.141317974272186E-2
20 116 1.191829125282615E-2
20 115 1.657196493040307E-3
20 114 5.98714499578317E-3
20 113 1.1036340512845097E-2
20 112 1.6458065916473725E-3
20 111 2.1859161214921128E-2
21 138 3.769229019630655E-3
21 137 1.7496152190086246E-2
21 136 3.771703612598505E-3
21 135 3.7923675269514088E-3
21 134 1.3565301877095483E-2
21 133 1.1659224423200639E-2
21 132 1.7128651822248136E-2
21 131 3.8007684582068934E-3
21 130 3.81270143654873E-3
21 129 3.809368307558592E-3
21 128 2.2495018432861037E-2
21 127 3.786963500271366E-3
21 126 3.7829510216383596E-3
21 125 3.796382674716061E-3
21 124 3.796346436183904E-3
22 148 1.543115459829165E-2
22 147 2.8262132553564537E-2
22 146 5.033058316153781E-3
22 145 4.586721852730882E-3
22 144 4.595655678239228E-3
22 143 2.7332388739252866E-2
22 142 4.572539119258508E-3
22 141 4.565617284171449E-3
22 140 4.5816865215549335E-3
22 139 4.581610732613126E-3
23 160 1.817697754066518E-5
23 159 1.817716678141419E-5
23 158 2.362821287791563E-4
23 157 1.8180789039377142E-5
23 156 1.8147359719982772E-5
23 155 1.8107313481247272E-5
23 154 1.8146343558960027E-5
23 153 1.8105820399479884E-5
23 152 1.8093288144645125E-5
23 151 1.8125183886471757E-5
23 150 1.8017433787626595E-5
23 149 1.805849835672206E-5
24 194 1.0166112828008744E-4
24 193 1.0147879524880957E-4
24 192 5.148947528747346E-4
24 191 1.0169437810361177E-4
24 190 3.3001351738977435E-4
24 189 1.0129842954940067E-4
24 188 1.0124130250070104E-4
24 187 1.0116094906031345E-4
24 186 1.0154182010237453E-4
24 185 1.01545157800907E-4
24 184 1.0073272411340862E-4
24 183 1.0098473715165781E-4
24 182 1.009848824255297E-4
25 12 7.738155416751643E-1
25 11 7.249144006381827E-1
25 10 3.778313403742979E-1
25 9 4.6409124318133954E-1
25 8 7.52507009294024E-1
25 7 4.405911559629081E-1
25 6 2.4405457826547486E-1
25 5 2.438403638339424E-1
25 4 4.5857755699562774E-1
25 3 4.6161746016545857E-1
25 2 6.254128827714109E-2
25 1 1.8473647048507832E-1
26 24 7.647904974973123E-1
26 23 7.534926242379656E-1
26 22 3.726801396773392E-1
26 21 4.614845322132847E-1
26 20 7.534727502762967E-1
26 19 4.3895518073318396E-1
26 18 2.4270518756659462E-1
26 17 2.4550801904810987E-1
26 16 4.615898144218157E-1
26 15 4.6143790070824914E-1
26 14 6.248755690724835E-2
26 13 1.8429844745872453E-1
27 43 1.878921528169132E-1
27 42 6.757255740134716E-2
27 41 3.0518363148657607E-1
27 40 1.2465774542339121E-1
27 39 1.2540013297312758E-1
28 48 6.373519462888524E-2
28 47 1.9273022155543218E-1
28 46 2.5908520842079596E-1
28 45 1.1637807395417725E-1
28 44 1.167506502571487E-1
29 57 4.8690514932143314E-1
29 56 3.886716082011565E-1
29 55 3.8012160904463366E-1
29 54 1.8512289778216653E-1
29 53 3.868321953899522E-1
29 52 4.593075415845122E-1
29 51 6.0967510124030844E-2
29 50 1.931055266344405E-1
29 49 1.9269230502085136E-1
30 66 3.723188673127018E-1
30 65 2.973079020926953E-1
30 64 2.9475421842312044E-1
30 63 1.849977020684961E-1
30 62 4.554689840727371E-1
30 61 3.8986999797212746E-1
30 60 6.081604032100828E-2
30 59 1.917836581341548E-1
30 58 1.9201557308937844E-1
31 80 3.6125572252148157E-3
31 79 4.3320012655833906E-2
31 78 3.6274925705097436E-3
31 77 4.4141517613838594E-3
31 76 1.820300690595476E-2
31 75 2.0977453627989067E-2
31 74 6.0763326842062135E-2
31 73 3.257786279796511E-3
31 72 3.2579421213128255E-3
31 71 5.020182300042187E-3
31 70 3.2426441576721915E-3
31 69 3.2455330632281247E-3
31 68 3.241222684629497E-3
31 67 3.2472489855864405E-3
32 94 3.6109194132006423E-3
32 93 4.3425178039036026E-2
32 92 3.6257895612097617E-3
32 91 5.0607914274036075E-3
32 90 2.0144818618343087E-2
32 89 2.3486987671248058E-2
32 88 6.800904955055287E-2
32 87 3.6422080146684623E-3
32 86 3.642153028388454E-3
32 85 5.623775917648647E-3
32 84 3.6249510992947052E-3
32 83 3.628298263876241E-3
32 82 3.6234414178826376E-3
32 81 3.6301650360504954E-3
33 123 5.587118267414567E-3
33 122 1.899254254554227E-2
33 121 6.659235582951096E-3
33 120 6.721357645508556E-3
33 119 1.913316081760312E-2
33 118 1.126876446755158E-2
33 117 6.893655435687894E-2
33 116 6.845885652137362E-2
33 115 9.459068955809636E-3
33 114 9.315187612845067E-3
33 113 8.286874527729304E-2
33 112 3.375805354512557E-2
33 111 3.615285536375803E-2
34 138 3.6819410831477805E-3
34 137 4.374927806892115E-2
34 136 3.684358369405777E-3
34 135 7.972794799074779E-3
34 134 7.826394732922789E-3
34 133 7.065968684025021E-3
34 132 4.6982616701697004E-2
34 131 3.7127501303106E-3
34 130 3.7244067643257507E-3
34 129 8.542714172882496E-3
34 128 8.510386574519484E-3
34 127 3.6992648680701733E-3
34 126 3.6953453105566404E-3
34 125 3.708465912946098E-3
34 124 3.7084305136271265E-3
35 148 9.493552796689345E-3
35 147 7.605073530932419E-2
35 146 3.8410777858376736E-3
35 145 3.50044730493095E-3
35 144 8.537443550208797E-3
35 143 8.504620729547639E-3
35 142 3.4896234719726978E-3
35 141 3.48434093691746E-3
35 140 3.4966044925673033E-3
35 139 3.4965466527406013E-3
36 160 1.0843865955916263E-5
36 159 1.0843978851545422E-5
36 158 3.416686220417069E-4
36 157 1.084613978725215E-5
36 156 1.0826196809510162E-5
36 155 1.0802306366563042E-5
36 154 1.0825590596849362E-5
36 153 1.0801415636599242E-5
36 152 1.0793939251086332E-5
36 151 1.0812967340225945E-5
36 150 1.0748686706880842E-5
36 149 1.077318465665343E-5
37 172 1.0167863633827328E-5
37 171 1.016804489408642E-5
37 170 2.8620326469473695E-4
37 169 1.0169955957934296E-5
37 168 1.0151288418554623E-5
37 167 1.012864775802544E-5
37 166 1.0150605847406099E-5
37 165 1.0128728232273136E-5
37 164 1.0120947460648748E-5
37 163 1.0138860738663719E-5
37 162 1.0078375604865259E-5
37 161 1.0101490853212897E-5
38 194 3.2913333859625434E-4
38 193 3.2854302565820076E-4
38 192 2.541745373542315E-3
38 191 4.927523056478143E-4
38 190 5.275274796895456E-4
38 189 3.279590820622656E-4
38 188 3.2777413018753477E-4
38 187 3.27513981627806E-4
38 186 3.28747071991537E-4
38 185 3.287578779690016E-4
38 184 3.2612758046514454E-4
38 183 3.2694348615153646E-4
38 182 3.269439564834644E-4
39 12 2.8746505863158682E-2
39 11 2.875355073625768E-2
39 10 2.8871800922022708E-2
39 9 2.886110094840008E-2
39 8 2.8755809451568377E-2
39 7 2.8858326943136847E-2
39 6 1.3862351922743357E-1
39 5 8.861314674811539E-2
39 4 2.8949042103529242E-2
39 3 2.8948546829782124E-2
39 2 2.1346519791707552E-1
39 1 8.51888341476443E-2
40 24 2.8894454479747207E-2
40 23 2.8901835278056995E-2
40 22 2.902091619382155E-2
40 21 2.900995799568525E-2
40 20 2.890355960403786E-2
40 19 2.900692263759594E-2
40 18 1.3943516800775896E-1
40 17 8.844147405185766E-2
40 16 2.9097797579323223E-2
40 15 2.9097518528012737E-2
40 14 2.139761104724793E-1
40 13 8.57346195099708E-2
41 38 3.150543269482374E-2
41 37 3.151974663822297E-2
41 36 3.1520480698677904E-2
41 35 3.1611227547856065E-2
41 34 2.2822300734981607E-1
41 33 1.882084794852096E-1
41 32 1.1582660547761091E-1
41 31 1.1593424483393018E-1
41 30 7.029045022877829E-2
41 29 8.134232713865094E-2
41 28 1.2731870918293237E-1
41 27 1.6549799426104642E-1
41 26 5.865413558833701E-2
41 25 5.856333359276392E-2
42 57 6.715775704684408E-3
42 56 6.722500250545617E-3
42 55 6.7224117627165125E-3
42 54 3.746027983112932E-2
42 53 6.750849480865404E-3
42 52 6.715430779370059E-3
42 51 3.1085186544119698E-2
42 50 1.2017914803946605E-2
42 49 1.2013429545431106E-2
43 66 3.99084537187838E-2
43 65 3.99460330647204E-2
43 64 3.99468026451551E-2
43 63 1.3982594697019382E-1
43 62 5.199057279758174E-2
43 61 5.228979642105749E-2
43 60 3.546281967211847E-1
43 59 1.7669591471381366E-1
43 58 1.767914836943679E-1
44 12 2.0390113818896046E-2
44 11 2.039511080061661E-2
44 10 2.0478986550884565E-2
44 9 2.0471396978744453E-2
44 8 2.0396712924453463E-2
44 7 2.0469429355850707E-2
44 6 5.926197211161052E-2
44 5 1.0351392046283434E-1
44 4 2.0533774304565707E-2
44 3 2.053342300315456E-2
44 2 1.5018738498048606E-1
44 1 6.042990683191003E-2
45 24 2.0241262740177474E-2
45 23 2.0246433167531462E-2
45 22 2.0329852223081406E-2
45 21 2.032217574080723E-2
45 20 2.0247641099498233E-2
45 19 2.0320049399206303E-2
45 18 5.90431752635238E-2
45 17 1.0087873772759329E-1
45 16 2.0383709489182725E-2
45 15 2.0383514007004735E-2
45 14 1.498652858724329E-1
45 13 5.9975888181150815E-2
46 38 3.687474966301832E-1
46 37 3.442402729764861E-1
46 36 2.8828006024121317E-1
46 35 1.48513106951239E-1
46 34 2.192529517714608E-2
46 33 1.7581681051139167E-1
46 32 8.853448728103969E-2
46 31 8.740842062041632E-2
46 30 5.6895621964953624E-2
46 29 4.553131492391305E-2
46 28 1.2757410872631048E-1
46 27 8.860686918882846E-2
46 26 4.111009093973484E-2
46 25 4.111559454749233E-2
47 57 4.624743107438141E-2
47 56 4.6293738900148415E-2
47 55 4.629312953870494E-2
47 54 1.1806501402044361E-1
47 53 4.648896267367491E-2
47 52 4.62450557851516E-2
47 51 3.2506238837420537E-1
47 50 1.6474870892310547E-1
47 49 1.64420444153933E-1
48 66 2.9847377530551928E-3
48 65 2.9875482977418516E-3
48 64 2.9876058543636553E-3
48 63 2.3351491089154353E-2
48 62 3.888354746224319E-3
48 61 3.910733564804646E-3
48 60 1.757540587049906E-2
48 59 6.755839169306268E-3
48 58 6.771185082257602E-3
49 12 2.952540558063645E-2
49 11 2.9532641337792542E-2
49 10 3.620954107718341E-1
49 9 2.9643105672098213E-2
49 8 2.9534961254027128E-2
49 7 7.361811414227938E-2
49 6 2.1685196011443392E-1
49 5 2.972669512433194E-2
49 4 1.5579557930466326E-1
49 3 9.316257184599165E-2
49 2 1.2012113536685036E-1
49 1 1.0710899961118035E-1
50 24 2.9523854768424333E-2
50 23 2.9531396340718972E-2
50 22 3.666859875950452E-1
50 21 2.9641874267016612E-2
50 20 2.9533158227238347E-2
50 19 7.406988209471708E-2
50 18 2.170940582374951E-1
50 17 2.9725205131831214E-2
50 16 1.5281507284148327E-1
50 15 9.27085178061363E-2
50 14 1.2086850616225767E-1
50 13 1.0713235331703815E-1
51 38 1.5858741297474319E-1
51 37 1.5128321434842001E-1
51 36 1.445620477847749E-1
51 35 4.3681167698441653E-1
51 34 3.0317001042255837E-2
51 33 3.0914923946384044E-2
51 32 9.406463320453032E-2
51 31 9.356142354733407E-2
51 30 2.173883826389841E-1
51 29 3.0506479238842994E-2
51 28 9.610240101388959E-2
51 27 1.2730874985118437E-1
51 26 1.104040205521967E-1
51 25 1.1011368005957692E-1
52 43 1.1509226024918442E-1
52 42 7.150077751168983E-3
52 41 7.16320773346738E-3
52 40 1.9209517343486755E-2
52 39 1.970926576478566E-2
53 48 6.288293073240605E-1
53 47 6.75339863172006E-2
53 46 3.135373260716696E-1
53 45 2.615427250302097E-1
53 44 2.6209536908626646E-1
54 66 5.482988878245508E-2
54 65 3.121243697762301E-2
54 64 2.865141275297864E-2
54 63 1.9890608267813784E-1
54 62 9.1831456728465E-2
54 61 2.8000157674943914E-2
54 60 3.1789347700320256E-2
54 59 2.8429124694982225E-2
54 58 2.844933829142018E-2
55 80 5.727586269667263E-4
55 79 5.76758693628384E-4
55 78 5.751265750243209E-4
55 77 5.148681931197983E-4
55 76 1.1591778422041591E-2
55 75 5.166547932655513E-4
55 74 5.165643088994131E-4
55 73 5.165109035625959E-4
55 72 5.1653561170349E-4
55 71 5.156349348274737E-4
55 70 5.141101717439402E-4
55 69 5.145681978668494E-4
55 68 5.138848020411376E-4
55 67 5.148402515043865E-4
56 94 5.822063678974954E-4
56 93 5.862569693652735E-4
56 92 5.846039552905671E-4
56 91 5.853431274510287E-4
56 90 1.304248492784006E-2
56 89 5.873735640432893E-4
56 88 5.872605862799139E-4
56 87 5.872511836168872E-4
56 86 5.872423179074364E-4
56 85 5.862134940897564E-4
56 84 5.844687659356341E-4
56 83 5.850084458095873E-4
56 82 5.842253525466815E-4
56 81 5.8530943470546E-4
57 148 2.862225954196392E-2
57 147 6.890153624425013E-3
57 146 4.657086692438946E-3
57 145 4.244091755049562E-3
57 144 8.011440915307269E-3
57 143 8.040631992927464E-3
57 142 4.2309684778754015E-3
57 141 4.224563706850249E-3
57 140 4.2394325652809345E-3
57 139 4.239362437805719E-3
58 12 2.9521740869660813E-2
58 11 2.9528975728710407E-2
58 10 2.965041488234398E-2
58 9 2.6678358377466044E-1
58 8 2.9531295356995606E-2
58 7 6.0728397483258624E-2
58 6 2.9722976471480658E-2
58 5 2.1502581878925553E-1
58 4 8.862302300357926E-2
58 3 1.4821648868110826E-1
58 2 1.2083514133114152E-1
58 1 1.0729789671873584E-1
59 24 2.9520907880604297E-2
59 23 2.952844870014603E-2
59 22 2.9650111379297402E-2
59 21 2.6811971337033086E-1
59 20 2.9530210410804832E-2
59 19 6.074689700368563E-2
59 18 2.9722202686562955E-2
59 17 2.1508987177417233E-1
59 16 8.931384573563222E-2
59 15 1.4879326096662462E-1
59 14 1.2019102030238296E-1
59 13 1.0734744040021617E-1
60 38 3.00982380251582E-2
60 37 3.011191263422267E-2
60 36 3.011261390776211E-2
60 35 3.019930753590727E-2
60 34 3.399917274603866E-1
60 33 3.0111134654893148E-2
60 32 8.240154254555462E-2
60 31 8.206058264944469E-2
60 30 3.0375390752960463E-2
60 29 2.1544885848941553E-1
60 28 1.2734786287966743E-1
60 27 1.0491842026704483E-1
60 26 1.0957498780382956E-1
60 25 1.0992486504493301E-1
61 43 5.567218926582371E-2
61 42 5.656103478749565E-1
61 41 2.4035567625888032E-1
61 40 2.084397739509875E-1
61 39 2.0931136743106618E-1
62 48 5.645463007842575E-3
62 47 9.035603563659128E-2
62 46 5.659591839315939E-3
62 45 1.3331512437248751E-2
62 44 1.3512933955799448E-2
63 57 6.1037074623138926E-2
63 56 2.7497981198541466E-2
63 55 3.416717563426826E-2
63 54 1.9884992742888127E-1
63 53 2.656125240398507E-2
63 52 8.07335001346962E-2
63 51 3.183010654203436E-2
63 50 2.8383194102445913E-2
63 49 2.8424417679249123E-2
64 80 3.1680251460058126E-4
64 79 3.1901501934048236E-4
64 78 3.181122668483342E-4
64 77 2.847823334098564E-4
64 76 2.857689139436667E-4
64 75 5.544998473609113E-3
64 74 2.8572048382564556E-4
64 73 2.856909444277209E-4
64 72 2.857046109196737E-4
64 71 2.8520643125771794E-4
64 70 2.843630589254813E-4
64 69 2.8461640094541534E-4
64 68 2.842384031190018E-4
64 67 2.8476687842828523E-4
65 94 3.125476805021503E-4
65 93 3.147221776619195E-4
65 92 3.138347849033129E-4
65 91 3.1423159702523854E-4
65 90 3.153238886862376E-4
65 89 6.175748502522033E-3
65 88 3.152609524951738E-4
65 87 3.152559048339293E-4
65 86 3.152511454271663E-4
65 85 3.1469883869266174E-4
65 84 3.1376221077557623E-4
65 83 3.140519288242243E-4
65 82 3.136315383983656E-4
65 81 3.1421350964238275E-4
66 138 2.0949942460951184E-3
66 137 6.443823435775669E-3
66 136 2.096369662129027E-3
66 135 2.8717191034162664E-3
66 134 2.566885855189905E-3
66 133 1.6317073629656505E-2
66 132 2.116896658086714E-3
66 131 2.1125243409761043E-3
66 130 2.119156870025075E-3
66 129 3.79166056768623E-3
66 128 3.820704295821832E-3
66 127 2.1048513374807235E-3
66 126 2.102621141436666E-3
66 125 2.1100866564708488E-3
66 124 2.1100665145489966E-3
67 24 7.530806871583794E-3
67 23 7.532730540593295E-3
67 22 7.563766785951129E-3
67 21 7.560910733628603E-3
67 20 7.5331799543711065E-3
67 19 7.560119623501476E-3
67 18 1.2448040942575804E-2
67 17 1.4507209635346264E-2
67 16 7.583804501722462E-3
67 15 7.583731772142881E-3
67 14 3.675300205952341E-2
67 13 2.7758416429323255E-2
68 38 4.679421772679582E-3
68 37 3.165922839814975E-3
68 36 3.165996570698245E-3
68 35 3.1751114130779113E-3
68 34 3.607747677923427E-3
68 33 2.9088440228877882E-2
68 32 3.1146201480190552E-2
68 31 3.178839892491842E-3
68 30 5.8470832627766705E-3
68 29 6.425218734602971E-3
68 28 1.280325468196081E-2
68 27 1.1482006425668753E-2
68 26 1.069177414073506E-2
68 25 3.194701111696917E-3
69 57 1.0045913361155388E-3
69 56 1.0055972393512246E-3
69 55 1.0055840027408344E-3
69 54 2.0523462448738755E-3
69 53 1.0098379097394474E-3
69 52 1.0045397398446626E-3
69 51 4.505727491601715E-3
69 50 3.970151473419355E-3
69 49 1.0090487119733596E-3
70 66 4.235284742425003E-4
70 65 4.239272850598703E-4
70 64 4.2393545223241E-4
70 63 1.5228533022618427E-3
70 62 5.517499657369454E-4
70 61 5.549254765097005E-4
70 60 2.292439286367045E-3
70 59 1.9708996721305386E-3
70 58 5.546275489230761E-4
71 94 7.200647039002882E-2
71 93 1.2955131178584772E-1
71 92 7.230300064999519E-2
71 91 1.846473511254252E-1
71 90 1.3927445776411207E-1
71 89 1.3905237301232246E-1
71 88 1.6427238410935302E-1
71 87 1.6919772832904212E-1
71 86 1.6930268657255929E-1
71 85 2.93075987190642E-1
71 84 7.228628061940161E-2
71 83 7.235302747241909E-2
71 82 8.23025444324385E-2
71 81 2.502087422480898E-1
72 102 8.569219114581847E-2
72 101 1.5688928552933384E-1
72 100 5.406552361544634E-2
72 99 8.523175552670305E-2
72 98 2.3735572181655026E-1
72 97 1.3600401589739503E-1
72 96 3.0028676139148497E-1
72 95 5.433611179673463E-2
73 110 2.0192539064820714E-1
73 109 5.381100069560091E-1
73 108 5.411740494504795E-2
73 107 2.369563984299965E-1
73 106 8.893000900567616E-2
73 105 1.370705736744548E-1
73 104 2.9890564246514884E-1
73 103 5.4348007193402666E-2
74 123 1.0228503193592417E-1
74 122 1.5800108700315413E-1
74 121 3.796035499380041E-1
74 120 5.915008638926492E-2
74 119 1.6171974493847727E-1
74 118 1.8883120861948866E-1
74 117 1.6795126908534616E-1
74 116 1.657322521446364E-1
74 115 3.785277872290604E-1
74 114 5.9275609146550765E-2
74 113 1.400496119277511E-1
74 112 3.550587555764534E-1
74 111 5.886784319740558E-2
75 138 1.129900875327454E-1
75 137 1.5801944610112487E-1
75 136 7.410060891140628E-2
75 135 3.5507444838777125E-1
75 134 6.092234303353996E-2
75 133 1.6939196007979426E-1
75 132 2.2276199877031647E-1
75 131 1.7073679371363135E-1
75 130 2.4373452500155196E-1
75 129 4.2477204204656643E-1
75 128 6.119393989547915E-2
75 127 1.5619125960006044E-1
75 126 1.386532592543526E-1
75 125 4.243758516172188E-1
75 124 6.098481970230732E-2
76 148 1.943159977198738E-1
76 147 1.9994653956458752E-1
76 146 2.7578246459266026E-1
76 145 1.9068322747847716E-1
76 144 4.45528122895266E-1
76 143 6.298997474184968E-2
76 142 1.6598329323260116E-1
76 141 1.5164439602981322E-1
76 140 4.5108362086289355E-1
76 139 6.279834564154776E-2
77 172 1.4697637557009872E-2
77 171 4.458544575296774E-3
77 170 1.281373072002481E-2
77 169 8.084523593262281E-3
77 168 1.9389304982073235E-2
77 167 4.4412694856313965E-3
77 166 4.450897798774364E-3
77 165 4.4413047724563715E-3
77 164 4.437893013610017E-3
77 163 4.4457477338980715E-3
77 162 4.419225854029104E-3
77 161 4.42936156509259E-3
78 181 2.6493015418636075E-3
78 180 4.8749584174529484E-4
78 179 1.456749933225423E-3
78 178 2.313761645602537E-3
78 177 4.8739974152847053E-4
78 176 4.8277353481246155E-4
78 175 4.8513346461800017E-4
78 174 4.852954439454009E-4
78 173 4.853064289985801E-4
79 194 1.9801310377054574E-2
79 193 4.574219083265689E-3
79 192 1.3476889406088119E-2
79 191 4.2784823578791556E-2
79 190 4.583938746337751E-3
79 189 4.566088988479089E-3
79 188 4.563513951638222E-3
79 187 4.559891970912832E-3
79 186 4.5770599672867295E-3
79 185 4.577210416100041E-3
79 184 4.540589468165733E-3
79 183 4.551949110798115E-3
79 182 4.551955659107202E-3
80 208 4.457507731614071E-3
80 207 8.90614243486478E-4
80 206 1.3116088406720837E-3
80 205 2.0363446429409603E-3
80 204 5.851971149848735E-4
80 203 8.430223485016763E-3
80 202 5.803403934751179E-4
80 201 6.969130287806525E-3
80 200 5.804063924891702E-4
81 12 7.536038610770812E-3
81 11 7.53788545907769E-3
81 10 7.568885329806263E-3
81 9 7.566080278829348E-3
81 8 7.538477592461594E-3
81 7 7.565353059637223E-3
81 6 1.2464607472849113E-2
81 5 1.4350434387139835E-2
81 4 7.589134487354165E-3
81 3 7.589004648893137E-3
81 2 3.6939945015120525E-2
81 1 2.771496703167511E-2
82 38 7.707741805398373E-3
82 37 3.1639709890938397E-3
82 36 3.1640446745206394E-3
82 35 3.173153897429278E-3
82 34 4.0397999793843455E-3
82 33 2.9088756674869324E-2
82 32 3.176888474945526E-3
82 31 3.0662301115127095E-2
82 30 5.9011298050909875E-3
82 29 6.336185232692203E-3
82 28 1.286862098556639E-2
82 27 1.1372410324824724E-2
82 26 3.192721413928327E-3
82 25 1.0628094702046577E-2
83 57 9.995311415613923E-4
83 56 1.000531977994397E-3
83 55 1.0005188080577092E-3
83 54 2.189282887117425E-3
83 53 1.0047512878388514E-3
83 52 9.994798051844247E-4
83 51 4.5064905038977605E-3
83 50 1.0039670323126997E-3
83 49 3.9153369772655985E-3
84 66 4.233432482031633E-4
84 65 4.237418846045196E-4
84 64 4.2375004820522624E-4
84 63 1.5926565540965913E-3
84 62 5.5150866328133E-4
84 61 5.546827852754807E-4
84 60 2.275216791965504E-3
84 59 5.543854006610028E-4
84 58 1.986093711880154E-3
85 80 7.201705238700785E-2
85 79 1.3183291819989174E-1
85 78 7.231479148910856E-2
85 77 1.634222952342268E-1
85 76 1.2448405413633352E-1
85 75 1.2438589618825747E-1
85 74 1.4693794018363124E-1
85 73 1.503235020227485E-1
85 72 1.5275857661772563E-1
85 71 2.620230857760786E-1
85 70 6.464276124002903E-2
85 69 6.47003521513399E-2
85 68 7.347278235237749E-2
85 67 2.2326861938620718E-1
86 102 8.708693413155039E-2
86 101 5.437862743487292E-2
86 100 1.8572631313102142E-1
86 99 8.775892384853207E-2
86 98 2.394045378691654E-1
86 97 1.3703244612035725E-1
86 96 5.465174484940829E-2
86 95 3.0204645386421936E-1
87 110 2.1308645604444792E-1
87 109 5.44043428014784E-2
87 108 5.611723099434082E-1
87 107 2.401612648722775E-1
87 106 8.576756042643693E-2
87 105 1.3706915036906195E-1
87 104 5.463641152531087E-2
87 103 3.006510347907774E-1
88 123 1.0252983485356813E-1
88 122 1.574279739074404E-1
88 121 5.917631046072603E-2
88 120 3.7810736963826597E-1
88 119 1.619255604809449E-1
88 118 1.8880882493266865E-1
88 117 1.697207641273425E-1
88 116 1.680062929230681E-1
88 115 5.930159727209516E-2
88 114 3.776470103778867E-1
88 113 1.3697969016510883E-1
88 112 5.8894017755598896E-2
88 111 3.597902585438096E-1
89 138 1.106912014755418E-1
89 137 1.584456211678189E-1
89 136 7.864505166030487E-2
89 135 6.0962410079800966E-2
89 134 3.608782277836683E-1
89 133 1.7020276417901425E-1
89 132 2.216078247886322E-1
89 131 1.7287437205760248E-1
89 130 2.4505154031664778E-1
89 129 6.1235698085693416E-2
89 128 4.247824803765109E-1
89 127 1.546546491970079E-1
89 126 1.3992361744457027E-1
89 125 6.102695368819867E-2
89 124 4.2499404872413665E-1
90 148 1.96404963905597E-1
90 147 2.0465941164564513E-1
90 146 2.758123919022049E-1
90 145 1.9146981123608534E-1
90 144 6.332208483182232E-2
90 143 4.4756559040394306E-1
90 142 1.6884791054758402E-1
90 141 1.546685155009874E-1
90 140 6.312960824381762E-2
90 139 4.5052466116250256E-1
91 160 1.4768067308414656E-2
91 159 4.529375657447771E-3
91 158 1.3288745693199372E-2
91 157 8.160214909059382E-3
91 156 1.9473288461864996E-2
91 155 4.511969653466341E-3
91 154 4.521695145124436E-3
91 153 4.511597608235468E-3
91 152 4.5084748283950185E-3
91 151 4.5164225904606396E-3
91 150 4.489573484620015E-3
91 149 4.499805929636406E-3
92 181 2.703985571119689E-3
92 180 4.922808882339118E-4
92 179 1.399835889037749E-3
92 178 4.921822870223356E-4
92 177 2.273605120458034E-3
92 176 4.875122291965637E-4
92 175 4.898953230434384E-4
92 174 4.900588922892456E-4
92 173 4.90069985166914E-4
93 194 1.9706412689887317E-2
93 193 4.564668097048116E-3
93 192 1.3091215733020089E-2
93 191 4.574365336527293E-3
93 190 4.313295879319371E-2
93 189 4.55655497792924E-3
93 188 4.553985317774739E-3
93 187 4.550370899758384E-3
93 186 4.567503049292905E-3
93 185 4.567653183968542E-3
93 184 4.531108700707795E-3
93 183 4.54244462436471E-3
93 182 4.542451159000903E-3
94 208 5.033931394705348E-3
94 207 8.973064461765709E-4
94 206 1.3294776091536536E-3
94 205 5.901790914524558E-4
94 204 2.043053630318106E-3
94 203 7.041076167837634E-3
94 202 1.1779267440844383E-3
94 201 5.853433308155753E-4
94 200 1.0304039640711886E-2
95 80 6.809927920790367E-3
95 79 4.719577139983362E-2
95 78 6.838082111461915E-3
95 77 9.836011374290592E-3
95 76 2.8040315912602948E-2
95 75 1.708913160603597E-2
95 74 4.562929257293653E-2
95 73 6.141159395872219E-3
95 72 6.141453168240933E-3
95 71 2.318372780993254E-2
95 70 6.112615416135458E-3
95 69 6.11806120906811E-3
95 68 6.109935838108422E-3
95 67 6.121295845047366E-3
96 94 6.783020253105957E-3
96 93 4.6778308271823485E-2
96 92 6.810953447832985E-3
96 91 1.1175413972255703E-2
96 90 3.0858678491604168E-2
96 89 1.9450467912699585E-2
96 88 5.134262550356827E-2
96 87 6.841795094956959E-3
96 86 6.841691804628858E-3
96 85 2.5588158608664983E-2
96 84 6.8093784184566734E-3
96 83 6.815665981968624E-3
96 82 6.80654252033157E-3
96 81 6.819172666005829E-3
97 123 4.199289786481521E-3
97 122 1.8443288089347136E-2
97 121 5.8223484469805305E-3
97 120 5.981022212503885E-3
97 119 1.959429632202232E-2
97 118 5.335727037845959E-3
97 117 4.389636773783537E-2
97 116 4.567211082261325E-2
97 115 8.168643934838895E-3
97 114 8.134511939683172E-3
97 113 5.1508950670849284E-2
97 112 3.1601333657226706E-2
97 111 2.9553026480161976E-2
98 138 1.2265523213177974E-2
98 137 6.147891331165358E-2
98 136 1.2273575835433679E-2
98 135 2.1801854937164255E-2
98 134 2.1663005810859382E-2
98 133 4.251327281565854E-2
98 132 1.0445280603972126E-1
98 131 1.236815632832505E-2
98 130 1.2406987670780458E-2
98 129 6.516319722056162E-2
98 128 6.466390768773303E-2
98 127 1.2323233339795223E-2
98 126 1.2310176253171087E-2
98 125 1.2353884462929073E-2
98 124 1.2353766538399926E-2
99 148 2.1157614643726768E-2
99 147 2.9655862349180204E-2
99 146 5.171791069865327E-3
99 145 4.713151652102759E-3
99 144 1.0603292237347559E-2
99 143 1.0532586583461536E-2
99 142 4.698577981441466E-3
99 141 4.691465350782004E-3
99 140 4.707977525523298E-3
99 139 4.707899647511995E-3
100 160 1.9503755751429055E-5
100 159 1.950395880528323E-5
100 158 4.198608404865992E-4
100 157 1.9507845459949552E-5
100 156 1.9471976059828126E-5
100 155 1.9429006756636042E-5
100 154 1.947088572694152E-5
100 153 1.942740469149386E-5
100 152 1.94139576793729E-5
100 151 1.9448181562672832E-5
100 150 1.9332566543323943E-5
100 149 1.937662850708463E-5
101 172 1.737085592970596E-5
101 171 1.737116559611769E-5
101 170 4.0425360247466915E-4
101 169 1.7374430472198784E-5
101 168 1.734253870527465E-5
101 167 1.7303859227818107E-5
101 166 1.7341372595508644E-5
101 165 1.7303996710637815E-5
101 164 1.7290703980937986E-5
101 163 1.732130716198298E-5
101 162 1.7217973897204863E-5
101 161 1.7257464164117018E-5
102 194 3.58344991467423E-4
102 193 3.5770228633869884E-4
102 192 2.536446671090216E-3
102 191 6.430295235024978E-4
102 190 6.483937965065595E-4
102 189 3.570665158518946E-4
102 188 3.5686514889753205E-4
102 187 3.565819113081287E-4
102 186 3.579244424468894E-4
102 185 3.579362074899534E-4
102 184 3.5507246253905773E-4
102 183 3.559607825052918E-4
102 182 3.5596129458070604E-4
103 80 6.503312162111264E-3
103 79 1.3730275233072783E-2
103 78 6.530198715498958E-3
103 77 6.560978020741914E-3
103 76 1.7816619226121905E-2
103 75 2.6839498933906716E-2
103 74 4.463325329699927E-2
103 73 5.864654817668679E-3
103 72 5.86493536299024E-3
103 71 2.184502131792836E-2
103 70 5.837396025397116E-3
103 69 5.842596622499346E-3
103 68 5.834837094880488E-3
103 67 5.8456856195854496E-3
104 94 6.885257784964825E-3
104 93 1.399753782998097E-2
104 92 6.913612004659973E-3
104 91 7.793042135405161E-3
104 90 2.2676547638042197E-2
104 89 3.0921905327961803E-2
104 88 5.116112278212896E-2
104 87 6.944918514597673E-3
104 86 6.944813667419111E-3
104 85 2.5889849603941646E-2
104 84 6.912013235546784E-3
104 83 6.9183955687853295E-3
104 82 6.90913459315525E-3
104 81 6.921955107555027E-3
105 123 4.199725986272808E-3
105 122 6.291152986679447E-3
105 121 4.394294408453239E-3
105 120 4.4599873791845825E-3
105 119 6.862570890582425E-3
105 118 1.0769691509212522E-2
105 117 4.45080148206405E-2
105 116 4.3013683964595824E-2
105 115 8.134211337344531E-3
105 114 8.181964833401889E-3
105 113 5.279471255274671E-2
105 112 2.72044111380206E-2
105 111 3.0892899507731747E-2
106 138 3.9853815909061206E-3
106 137 2.9475957182858514E-2
106 136 3.987998093434274E-3
106 135 8.747221669999245E-3
106 134 8.907204349209833E-3
106 133 1.405917268147832E-2
106 132 2.2512882994371965E-2
106 131 4.018729709907277E-3
106 130 4.03134700430901E-3
106 129 8.901219846860684E-3
106 128 8.805141687897934E-3
106 127 4.004133084196039E-3
106 126 3.999890503446872E-3
106 125 4.014092416525784E-3
106 124 4.014054099836034E-3
107 148 5.968254841689701E-2
107 147 2.1362987385805104E-1
107 146 1.7824599731305135E-2
107 145 1.624389704394203E-2
107 144 8.31593037237978E-2
107 143 8.366728272894602E-2
107 142 1.6193668826551925E-2
107 141 1.6169155114990716E-2
107 140 1.6226064394867058E-2
107 139 1.6225795987972698E-2
108 160 4.209539702596328E-6
108 159 4.209583528168788E-6
108 158 5.7893043981171945E-5
108 157 4.210422393633301E-6
108 156 4.202680619902956E-6
108 155 4.19340645803971E-6
108 154 4.202445290890755E-6
108 153 4.19306068069774E-6
108 152 4.190158381667445E-6
108 151 4.197544999781628E-6
108 150 4.172591548745412E-6
108 149 4.182101542009729E-6
109 172 4.889615095258792E-6
109 171 4.889702261347063E-6
109 170 1.0084146263597015E-4
109 169 4.890621271177946E-6
109 168 4.8816442544093E-6
109 167 4.870756606868294E-6
109 166 4.8813160133636276E-6
109 165 4.870795306059243E-6
109 164 4.867053617563264E-6
109 163 4.875667918240565E-6
109 162 4.846581274879634E-6
109 161 4.857697146543693E-6
110 194 8.406730576864197E-5
110 193 8.391652791528263E-5
110 192 5.500630228533413E-4
110 191 1.3978592887890572E-4
110 190 1.53616497138515E-4
110 189 8.376737692061131E-5
110 188 8.372013647431743E-5
110 187 8.365368927510854E-5
110 186 8.396864547216308E-5
110 185 8.397140553717358E-5
110 184 8.329957440191902E-5
110 183 8.350797320195798E-5
110 182 8.350809333423681E-5
111 12 5.46098225876152E-4
111 11 5.46232057539701E-4
111 10 5.484784598316251E-4
111 9 5.48275192114844E-4
111 8 5.462749664215597E-4
111 7 5.482224942544489E-4
111 6 5.498207165525022E-4
111 5 5.498212522169527E-4
111 4 5.499458128513657E-4
111 3 5.499364041212782E-4
111 2 1.4261243394808155E-2
111 1 5.489248312920707E-4
112 24 5.406768415947602E-4
112 23 5.408149520657981E-4
112 22 5.430432098609027E-4
112 21 5.42838158612676E-4
112 20 5.408472178808827E-4
112 19 5.42781360591935E-4
112 18 5.443635656059367E-4
112 17 5.443642150558035E-4
112 16 5.444818244822519E-4
112 15 5.444766028373407E-4
112 14 1.4120656337403654E-2
112 13 5.434761677445002E-4
113 38 1.7497473238507665E-2
113 37 2.4390240694893745E-3
113 36 2.439080871694627E-3
113 35 2.4461029379541145E-3
113 34 3.0202513378455214E-3
113 33 1.2792240989607376E-1
113 32 2.1086895552305095E-2
113 31 2.0300169869100083E-2
113 30 2.4603654396371777E-3
113 29 2.491957127611365E-3
113 28 1.7279926704998297E-2
113 27 1.3378675887095721E-2
113 26 3.787191865947083E-3
113 25 3.7762439714638892E-3
114 80 1.5608134795835282E-1
114 79 2.9816760521422726E-2
114 78 5.832735234632198E-1
114 77 1.7467545882691213E-1
114 76 9.293716935608878E-2
114 75 1.0005566829957184E-1
114 74 2.6704884490726027E-2
114 73 2.0263842233478016E-1
114 72 1.9631616688539794E-1
114 71 9.542822817693997E-2
114 70 2.657801267993264E-2
114 69 2.660169130908936E-2
114 68 2.686278445005096E-1
114 67 1.233775142177605E-1
115 94 1.4923575402691078E-1
115 93 2.945714372388637E-2
115 92 5.827823984119352E-1
115 91 1.8732574537662058E-1
115 90 1.0314675038215168E-1
115 89 1.1041135171568965E-1
115 88 2.9507571589554717E-2
115 87 2.18931257378035E-1
115 86 2.1973417471743203E-1
115 85 1.0546715925683774E-1
115 84 2.936729342241965E-2
115 83 2.9394410247366123E-2
115 82 2.984271552771267E-1
115 81 1.3669103831768392E-1
116 102 1.6848197940704985E-2
116 101 1.685539908252746E-2
116 100 1.6855556205194452E-2
116 99 1.6911025835861192E-2
116 98 4.852744171524779E-2
116 97 9.834826836282337E-2
116 96 3.0005602561849865E-2
116 95 2.9740255266472785E-2
117 110 3.216510156439131E-1
117 109 7.031122038419624E-2
117 108 3.5287213391628414E-1
117 107 4.730724949549585E-2
117 106 1.6886484308520737E-2
117 105 9.687829740670512E-2
117 104 2.9719134800178477E-2
117 103 2.9688768209703672E-2
118 138 1.8620843239953216E-1
118 137 2.937387636939196E-2
118 136 5.832929021025954E-1
118 135 1.081097177669841E-1
118 134 1.0272275218132716E-1
118 133 1.139721545177113E-1
118 132 2.9494854372274094E-2
118 131 2.432660122794897E-1
118 130 1.9213531552485488E-1
118 129 1.1012752979296958E-1
118 128 1.1074118879969304E-1
118 127 2.9327026162151573E-2
118 126 3.859688908938787E-1
118 125 1.6131394168424518E-1
118 124 1.6033139082420003E-1
119 148 3.639820304338805E-2
119 147 1.5996813352635055E-2
119 146 1.7911049945566943E-1
119 145 1.573558748626995E-1
119 144 5.0640898434736736E-2
119 143 4.97571728351864E-2
119 142 3.0716414482915153E-2
119 141 3.667998119059771E-1
119 140 1.2046782052229996E-1
119 139 1.2028034980058429E-1
120 160 2.4684048266995034E-2
120 159 3.6450715298312606E-3
120 158 3.645792797976118E-3
120 157 3.512738522562301E-2
120 156 1.2513132820116447E-2
120 155 3.631063831119736E-3
120 154 3.6388905417831015E-3
120 153 3.630764423081758E-3
120 152 3.628251327072237E-3
120 151 3.634647387682408E-3
120 150 3.613040235018848E-3
120 149 3.6212749227176873E-3
121 172 2.4593220245816196E-2
121 171 3.6188418638497017E-3
121 170 3.6195267216384106E-3
121 169 3.521843194740447E-2
121 168 1.2328067596682103E-2
121 167 3.604820288730951E-3
121 166 3.61263524764671E-3
121 165 3.604848929790226E-3
121 164 3.6020797266267186E-3
121 163 3.6084551233794473E-3
121 162 3.5869282579288706E-3
121 161 3.5951550536683714E-3
122 181 2.7798428699664635E-2
122 180 4.789139904883074E-3
122 179 2.2132656623871847E-2
122 178 9.827189849614608E-3
122 177 9.823402366140948E-3
122 176 4.7427481479930655E-3
122 175 4.765932005241909E-3
122 174 4.767523283759986E-3
122 173 4.767631200488772E-3
123 208 2.085317944037977E-2
123 207 1.6853047156982566E-3
123 206 6.877819538708218E-3
123 205 2.5844780314690113E-3
123 204 2.5651952765522834E-3
123 203 9.912151978916301E-3
123 202 1.5702130630162972E-3
123 201 4.817998700116912E-3
123 200 8.123514586144555E-3
124 12 2.491437030712042E-3
124 11 2.4920476043170238E-3
124 10 2.5022962548175757E-3
124 9 2.501368896527912E-3
124 8 2.49224336539469E-3
124 7 2.501128475675753E-3
124 6 3.041160211420403E-2
124 5 2.5084224103603735E-3
124 4 2.5089906872058946E-3
124 3 2.5089477622201664E-3
124 2 2.557242542844404E-2
124 1 5.792432546028344E-3
125 24 2.5103257077537747E-3
125 23 2.510966945253302E-3
125 22 2.5213125942551255E-3
125 21 2.5203605552916804E-3
125 20 2.511116753232593E-3
125 19 2.520096845954334E-3
125 18 3.0956315489999508E-2
125 17 2.527445931298108E-3
125 16 2.527991983845535E-3
125 15 2.5279677401042664E-3
125 14 2.5584165797637577E-2
125 13 5.876058346035118E-3
126 38 3.2230199428088056E-3
126 37 3.2244842656601316E-3
126 36 3.2245593603750147E-3
126 35 3.233842803883992E-3
126 34 3.2325220023310926E-3
126 33 5.693843653093644E-3
126 32 3.2376488079470943E-3
126 31 3.39315704289646E-3
126 30 2.0314784295940424E-2
126 29 3.252724938583801E-3
126 28 3.2443338287842616E-3
126 27 2.4409672947268174E-2
126 26 5.1388641142318565E-3
126 25 5.14558628441183E-3
127 66 2.8219142991593458E-3
127 65 2.824571522974601E-3
127 64 2.8246259397668007E-3
127 63 1.8804329846490313E-2
127 62 3.676237166009945E-3
127 61 3.6973951749792342E-3
127 60 1.8471525073269473E-2
127 59 6.392951208207015E-3
127 58 6.415290810029407E-3
128 80 5.328092736679423E-1
128 79 4.9072496769914375E-1
128 78 9.668795733377637E-2
128 77 3.272374444818902E-1
128 76 3.806788090042058E-1
128 75 5.471397092112765E-2
128 74 1.9901659826291437E-1
128 73 2.3690570806853425E-1
128 72 1.465944342638501E-1
128 71 1.5232506015205563E-1
128 70 5.880796250481497E-1
128 69 5.4492999546320225E-2
128 68 2.0081194199409969E-1
128 67 1.9634697155414169E-1
129 94 5.357150284921117E-1
129 93 4.933510548816297E-1
129 92 9.620986066794288E-2
129 91 3.7065202990759805E-1
129 90 4.2426753587605615E-1
129 89 6.119282776956918E-2
129 88 2.222057569228022E-1
129 87 2.59536672519716E-1
129 86 1.6704979706511977E-1
129 85 1.7021399411619917E-1
129 84 6.57083158986518E-1
129 83 6.094642874586554E-2
129 82 2.2561917399018308E-1
129 81 2.200092501580962E-1
130 102 6.25563709024973E-1
130 101 5.589134874207421E-1
130 100 5.779823632714195E-1
130 99 6.258823404997506E-1
130 98 9.62568738107516E-2
130 97 4.4329378077937187E-1
130 96 4.101409189748341E-1
130 95 4.1070258830171175E-1
131 110 3.212366694807214E-2
131 109 3.213657708612195E-2
131 108 3.213443188016456E-2
131 107 2.279499763277766E-1
131 106 3.220751080318876E-2
131 105 3.211926121620945E-2
131 104 5.199939515654461E-2
131 103 5.4279644420495925E-2
132 123 5.593352646064895E-1
132 122 4.1656249085047015E-1
132 121 3.2549935550480863E-1
132 120 3.28472704556925E-1
132 119 4.0877386873383414E-1
132 118 5.92622706667746E-2
132 117 2.394165046593256E-1
132 116 8.868624990625897E-2
132 115 1.8858947493958808E-1
132 114 1.8840608224882183E-1
132 113 1.7800810515807236E-1
132 112 1.546124352814455E-1
132 111 1.509230175920699E-1
133 148 3.4954416450255466E-1
133 147 1.2473161213169769E-1
133 146 1.5530162253251312E-1
133 145 2.6974580541979687E-1
133 144 1.4649449861426966E-1
133 143 1.4560001393445818E-1
133 142 4.4195931344081196E-1
133 141 1.3167611584374972E-1
133 140 1.7271425827382292E-1
133 139 1.7446462983433828E-1
134 160 3.661664229555853E-2
134 159 1.95492998119594E-3
134 158 1.6805259643702584E-2
134 157 2.988703494968608E-3
134 156 5.198581862226998E-3
134 155 1.947417352169429E-3
134 154 1.9516149848371937E-3
134 153 1.9472567732218653E-3
134 152 1.9459089459722683E-3
134 151 1.9493392903553724E-3
134 150 1.93775091130586E-3
134 149 1.9421673508013537E-3
135 172 3.68707394409186E-2
135 171 1.931811313967466E-3
135 170 1.6361752934098785E-2
135 169 2.979146205241973E-3
135 168 5.251875613828477E-3
135 167 1.9243263122809783E-3
135 166 1.9284980961332837E-3
135 165 1.9243416014603438E-3
135 164 1.922863344547441E-3
135 163 1.926266660868329E-3
135 162 1.914775182711436E-3
135 161 1.9191668134278883E-3
136 181 2.3454661703262974E-3
136 180 9.383026594880776E-5
136 179 9.354569968736213E-5
136 178 1.4309091626304548E-4
136 177 1.401308777486131E-4
136 176 9.292134472844758E-5
136 175 9.337556981574566E-5
136 174 9.340674662191863E-5
136 173 9.340886095884832E-5
137 194 8.850407964261132E-2
137 193 6.469479550334421E-3
137 192 2.6472350722228012E-2
137 191 2.487560842435485E-2
137 190 2.5311661022220662E-2
137 189 6.457980870230398E-3
137 188 6.454338904710144E-3
137 187 6.449216209489807E-3
137 186 6.4734975129077995E-3
137 185 6.4737102979763265E-3
137 184 6.421915998345683E-3
137 183 6.4379823419928785E-3
137 182 6.43799160349762E-3
138 208 4.308355152627185E-2
138 207 4.858735414992178E-3
138 206 5.7015431110366875E-3
138 205 4.676027707838855E-3
138 204 4.663779136318639E-3
138 203 8.774970932290262E-2
138 202 1.1089509554574568E-2
138 201 3.685171712425228E-2
138 200 3.223116740456178E-2
139 12 2.247651618541783E-3
139 11 2.2482024479364496E-3
139 10 2.2574482749838426E-3
139 9 2.2566116580695736E-3
139 8 2.248379053926342E-3
139 7 2.256394762233626E-3
139 6 2.2629727856821476E-3
139 5 3.586788341580738E-2
139 4 2.263487661734277E-3
139 3 2.2634489369290907E-3
139 2 1.8061822642017958E-2
139 1 4.476230308057038E-3
140 24 2.2851014535399928E-3
140 23 2.2856851597649296E-3
140 22 2.2951026060743307E-3
140 21 2.294235983224365E-3
140 20 2.2858215271017142E-3
140 19 2.2939959336609876E-3
140 18 2.300682920598748E-3
140 17 3.6838960063595244E-2
140 16 2.30118272659999E-3
140 15 2.301160657986248E-3
140 14 1.7933024888666563E-2
140 13 4.621456144645925E-3
141 38 2.2852534374617635E-3
141 37 2.286291702470645E-3
141 36 2.286344947705973E-3
141 35 2.292927290219152E-3
141 34 2.7242257548925905E-3
141 33 2.2862326332342476E-3
141 32 2.2956259033281414E-3
141 31 2.2956198357985008E-3
141 30 2.3062966700716793E-3
141 29 1.772866911040323E-2
141 28 1.5589037650991833E-2
141 27 2.3005023679348174E-3
141 26 3.448143140512356E-3
141 25 3.4558510846766466E-3
142 57 5.587833914299417E-3
142 56 5.593429045386853E-3
142 55 5.593355419447837E-3
142 54 2.475064141152856E-2
142 53 5.617016907398785E-3
142 52 5.587546920591739E-3
142 51 2.9314120687742362E-2
142 50 1.0266729990784582E-2
142 49 1.0219973453383498E-2
143 80 4.683888910414631E-2
143 79 4.716600539703711E-2
143 78 4.703253447455554E-2
143 77 4.210474197220848E-2
143 76 4.22506067746824E-2
143 75 2.9391402179911413E-1
143 74 1.43167878281003E-1
143 73 1.2214422435592684E-1
143 72 1.8670062932335413E-1
143 71 1.1747008030514294E-1
143 70 4.20427527196844E-2
143 69 5.715196707393366E-1
143 68 1.3742693657144944E-1
143 67 1.5947264283536658E-1
144 94 4.715681418685508E-2
144 93 4.748489967559821E-2
144 92 4.73510109346511E-2
144 91 4.741088146535117E-2
144 90 4.75756851036723E-2
144 89 3.297174625064152E-1
144 88 1.6205294948583904E-1
144 87 1.4889496191716262E-1
144 86 2.074346052921414E-1
144 85 1.3249602218428683E-1
144 84 4.734006103845941E-2
144 83 6.388865560230973E-1
144 82 1.5375446025274528E-1
144 81 1.7830343003262586E-1
145 102 2.820196374045957E-2
145 101 2.8214017631402813E-2
145 100 2.8214280636845463E-2
145 99 2.8307130478606918E-2
145 98 2.11446804457749E-1
145 97 2.8220535733978036E-2
145 96 4.786917069822281E-2
145 95 4.6676109619025116E-2
146 110 9.487801240782061E-2
146 109 9.491614280682073E-2
146 108 9.490980689013438E-2
146 107 9.543392400701846E-2
146 106 6.220339897811916E-1
146 105 4.2608912939162946E-1
146 104 4.1133223225154586E-1
146 103 4.085071263408652E-1
147 123 2.1859791558384082E-2
147 122 2.1944838485217485E-2
147 121 2.2005334140113353E-2
147 120 2.200558160398325E-2
147 119 2.201320280913225E-2
147 118 1.0302856931337231E-1
147 117 3.929095024093144E-2
147 116 1.2002433003933168E-1
147 115 4.575934986000059E-2
147 114 4.5881791487167076E-2
147 113 8.710665710157102E-2
147 112 6.717461791087884E-2
147 111 6.883392166119592E-2
148 138 1.1421514214205113E-1
148 137 2.783781388798635E-1
148 136 5.613400458279732E-2
148 135 1.5606716727244305E-1
148 134 1.5560137545983102E-1
148 133 2.274729189123097E-1
148 132 1.358610281753788E-1
148 131 1.6569725568617064E-1
148 130 1.0672522290296245E-1
148 129 1.0821956108144001E-1
148 128 1.0798972268684573E-1
148 127 4.391310834963569E-1
148 126 8.204589917123672E-2
148 125 1.2971963821242005E-1
148 124 1.2892388283730497E-1
149 24 1.8108489913344464E-5
149 23 1.81131155452919E-5
149 22 1.8187744937014998E-5
149 21 1.8180877307084186E-5
149 20 1.8114196200393165E-5
149 19 1.8178975012947358E-5
149 18 1.8231966636284477E-5
149 17 1.8231988387828948E-5
149 16 1.823592739343953E-5
149 15 1.823575250874514E-5
149 14 2.3652774320676967E-4
149 13 1.8202245675468863E-5
150 38 1.3610555608974991E-5
150 37 1.361673932733576E-5
150 36 1.361705644631454E-5
150 35 1.365625968624597E-5
150 34 1.3650682046857089E-5
150 33 1.3616387521661346E-5
150 32 1.3672332137198196E-5
150 31 1.3672296000090499E-5
150 30 1.3735885291422804E-5
150 29 3.0360649080617305E-5
150 28 1.0650133427886947E-4
150 27 1.370137547725683E-5
150 26 4.6066124479928626E-5
150 25 1.3740515630908116E-5
151 94 7.137384177400933E-3
151 93 7.18704131002468E-3
151 92 7.1667766802432555E-3
151 91 7.175838339430369E-3
151 90 7.20078207027424E-3
151 89 3.133177670295153E-2
151 88 3.156918792208987E-2
151 87 7.732072705280001E-3
151 86 1.0103352084388038E-2
151 85 2.1431904214133938E-2
151 84 7.165119366932967E-3
151 83 7.171735410325149E-3
151 82 8.090613519921469E-3
151 81 9.890744650433214E-3
152 102 2.4901927109708625E-4
152 101 2.4912570521508576E-4
152 100 2.4912802751520023E-4
152 99 2.499478782223957E-4
152 98 9.87048350505758E-4
152 97 2.491832591204505E-4
152 96 5.249463093905953E-4
152 95 2.503748682995928E-4
153 110 4.8479314057467526E-5
153 109 4.849879734491581E-5
153 108 4.8495559915219674E-5
153 107 4.876336525459695E-5
153 106 4.8605846703648864E-5
153 105 5.260958145919559E-4
153 104 1.234714936884022E-4
153 103 4.870220665230965E-5
154 123 1.1676333785168616E-2
154 122 1.1721761313718345E-2
154 121 1.1754074863334312E-2
154 120 1.1754207045324108E-2
154 119 1.1758277886298381E-2
154 118 8.499289579459392E-2
154 117 1.323546979094323E-2
154 116 2.4841137041156383E-2
154 115 9.996152239612288E-2
154 114 1.1779150719426763E-2
154 113 1.8042937170628996E-2
154 112 3.4087299873867924E-2
154 111 1.1698120146440899E-2
155 138 3.994030193502453E-2
155 137 1.0193659399951432E-2
155 136 3.108651098674573E-3
155 135 5.818765350482316E-2
155 134 3.1257562942548223E-3
155 133 8.595823579027459E-3
155 132 6.929456947754692E-3
155 131 6.153839893834421E-3
155 130 4.022979749927417E-3
155 129 1.0915961609990888E-2
155 128 3.1396911752596276E-3
155 127 4.248528819732321E-3
155 126 4.938222946764904E-3
155 125 7.086212472052729E-3
155 124 3.128961798687509E-3
156 172 2.379100103430365E-1
156 171 2.3568151725590378E-1
156 170 2.09433642188385E-1
156 169 2.0906322475572292E-1
156 168 3.7791058416181145E-1
156 167 1.5799913096143794E-1
156 166 2.075402811448719E-1
156 165 1.0456835342209961E-1
156 164 1.0448802522506859E-1
156 163 3.917352676720612E-1
156 162 1.040485160626825E-1
156 161 1.0428715643324295E-1
157 181 2.719403148300274E-1
157 180 2.8091143730714246E-1
157 179 2.049078768331777E-1
157 178 5.240484711573344E-1
157 177 7.835765289959314E-2
157 176 1.1004144533965345E-1
157 175 2.0010069502195038E-1
157 174 4.6348727651737803E-1
157 173 7.802111793116426E-2
158 194 2.704428726350382E-1
158 193 2.2430801471560666E-1
158 192 2.043631810442145E-1
158 191 5.247735513528459E-1
158 190 7.835686386495234E-2
158 189 2.3251592332938392E-1
158 188 2.1123997520077148E-1
158 187 2.0848462823953884E-1
158 186 5.997430737046158E-1
158 185 7.82418512337526E-2
158 184 1.760449661828072E-1
158 183 4.2020862291907424E-1
158 182 7.781015184483488E-2
159 199 2.0122576567329475E-1
159 198 1.7059884580729145E-1
159 197 2.6538725088306847E-1
159 196 4.8384978146494356E-1
159 195 7.615800121323729E-2
160 208 2.0497434265552505E-1
160 207 2.494730150145597E-1
160 206 2.4876422330750944E-1
160 205 4.6486811434066255E-1
160 204 7.451637049456566E-2
160 203 1.825753750563214E-1
160 202 1.6377506702598668E-1
160 201 4.50482662722269E-1
160 200 7.390634142353085E-2
161 12 1.694773528888283E-5
161 11 1.6951888650859896E-5
161 10 1.7021604005336257E-5
161 9 1.7015295749250545E-5
161 8 1.6953220294759883E-5
161 7 1.701366031198679E-5
161 6 1.706325990260392E-5
161 5 1.7063276526535074E-5
161 4 1.7067142169306683E-5
161 3 1.7066850176658893E-5
161 2 2.2808045960200378E-4
161 1 1.7035456797734562E-5
162 38 1.2784748446192484E-5
162 37 1.2790556973483784E-5
162 36 1.2790854851578382E-5
162 35 1.2827679473232224E-5
162 34 1.2822440251663384E-5
162 33 1.279022651327492E-5
162 32 1.2842776743927217E-5
162 31 1.7701060632406744E-4
162 30 1.2902473872616654E-5
162 29 3.794501559796545E-5
162 28 1.0606252213348725E-4
162 27 1.2870057907705868E-5
162 26 1.2906782421860191E-5
162 25 2.9116464425916253E-5
163 80 7.313346209315183E-3
163 79 7.364421602997105E-3
163 78 7.34358167524361E-3
163 77 6.574164353299879E-3
163 76 6.596939440853155E-3
163 75 2.8238710471841087E-2
163 74 2.96324087792703E-2
163 73 7.031239207318016E-3
163 72 9.301067990272525E-3
163 71 1.9535287452969098E-2
163 70 6.564485454554922E-3
163 69 6.570333823225483E-3
163 68 7.242796977368158E-3
163 67 8.945042405488239E-3
164 102 2.1138503121151422E-4
164 101 2.114753799594492E-4
164 100 2.114773512907442E-4
164 99 2.1217329810066694E-4
164 98 8.512851152666285E-4
164 97 2.1152423575293162E-4
164 96 2.1253751800406206E-4
164 95 5.255106937364573E-4
165 110 7.418325922465172E-5
165 109 7.421307263664867E-5
165 108 7.420811870751333E-5
165 107 7.461791561365809E-5
165 106 7.437688003539431E-5
165 105 3.1389441815189793E-4
165 104 7.452963804616604E-5
165 103 4.888507403498342E-4
166 123 1.1644287111208636E-2
166 122 1.1689589960109511E-2
166 121 1.172181482248785E-2
166 120 1.1721946641693126E-2
166 119 1.1726006309904112E-2
166 118 8.516220415579066E-2
166 117 1.3708674214486646E-2
166 116 2.5068061161693817E-2
166 115 1.1746631996643098E-2
166 114 9.961169571231414E-2
166 113 1.8014155489952097E-2
166 112 1.1665897466548E-2
166 111 3.330960801694545E-2
167 138 4.128053056370719E-2
167 137 1.0199570564519351E-2
167 136 3.11566892325307E-3
167 135 3.1327386409178023E-3
167 134 5.765285345849043E-2
167 133 8.644151778239035E-3
167 132 7.204369482918414E-3
167 131 6.251959445966554E-3
167 130 4.001981980950167E-3
167 129 3.1467823753278746E-3
167 128 1.0851601152864687E-2
167 127 4.029968669110447E-3
167 126 5.074966914277783E-3
167 125 3.136055410313682E-3
167 124 7.406235657114328E-3
168 160 2.3795417447275327E-1
168 159 2.3636450504340623E-1
168 158 2.0902855287083338E-1
168 157 2.092749803815776E-1
168 156 3.779455222251285E-1
168 155 1.567593051865153E-1
168 154 2.089804913119034E-1
168 153 1.0455097998643083E-1
168 152 1.0447861322836605E-1
168 151 3.867970136542335E-1
168 150 1.0404059676804836E-1
168 149 1.042777216730195E-1
169 181 2.69280787013744E-1
169 180 2.796681358995465E-1
169 179 2.0425062211076256E-1
169 178 7.822336031138417E-2
169 177 5.248078636222705E-1
169 176 1.118126964752338E-1
169 175 2.0101475664078616E-1
169 174 7.788588560806911E-2
169 173 4.615109002162413E-1
170 194 2.707496700628266E-1
170 193 2.2424707056576482E-1
170 192 2.0436779117564366E-1
170 191 7.822346196430963E-2
170 190 5.2250997677717E-1
170 189 2.3050535564460745E-1
170 188 1.8793351281160667E-1
170 187 1.9126916365836708E-1
170 186 7.810611413024378E-2
170 185 5.988507232415734E-1
170 184 1.6307205465321256E-1
170 183 7.767760512297146E-2
170 182 4.424279170704949E-1
171 199 2.0437674137139583E-1
171 198 1.707136637698385E-1
171 197 2.6571077021938155E-1
171 196 7.622167756061216E-2
171 195 4.8487104162749567E-1
172 208 2.055667112611243E-1
172 207 2.5012294085656933E-1
172 206 2.4944283966417244E-1
172 205 7.45554397019084E-2
172 204 4.6469586459538853E-1
172 203 1.8369662293275643E-1
172 202 1.6560681896554927E-1
172 201 7.394455350516342E-2
172 200 4.2765848861097305E-1
173 80 6.151297039364562E-4
173 79 6.194256843118937E-4
173 78 6.176728261506409E-4
173 77 5.529566981423723E-4
173 76 5.548723236936321E-4
173 75 1.0924423804105187E-3
173 74 1.863658453649811E-2
173 73 5.547209316968852E-4
173 72 5.547474676767507E-4
173 71 5.537801612513191E-4
173 70 5.521426004709352E-4
173 69 5.526345100819217E-4
173 68 5.519005585495496E-4
173 67 5.529266894846122E-4
174 94 5.690848861757601E-4
174 93 5.73044197173265E-4
174 92 5.714284379194657E-4
174 91 5.721509509801175E-4
174 90 5.74139788889814E-4
174 89 1.090498014462489E-3
174 88 1.9207707894106477E-2
174 87 5.740160043114402E-4
174 86 5.740073384130031E-4
174 85 5.730017017221959E-4
174 84 5.712962953959444E-4
174 83 5.718238122294497E-4
174 82 5.710583679386305E-4
174 81 5.721180175851323E-4
175 123 1.1515168236799746E-2
175 122 1.1559968740404448E-2
175 121 1.1591836274084298E-2
175 120 1.1591966631598769E-2
175 119 1.1595981283761552E-2
175 118 6.189196826774932E-2
175 117 2.063896657615345E-2
175 116 6.782002552249083E-2
175 115 2.549587250857214E-2
175 114 2.553101005914711E-2
175 113 5.18704014614773E-2
175 112 3.840386461364014E-2
175 111 3.63506402215336E-2
176 138 1.1235137379462955E-4
176 137 1.130603215823535E-4
176 136 1.1242513527690416E-4
176 135 1.1304107534141922E-4
176 134 1.1304374890255916E-4
176 133 1.1332707077958813E-4
176 132 1.0882174899995581E-3
176 131 1.1329148627765903E-4
176 130 1.1364717878219627E-4
176 129 1.2534308174353757E-4
176 128 1.2535132154460762E-4
176 127 1.1287999470175432E-4
176 126 1.1276039265995956E-4
176 125 1.1316075694341201E-4
176 124 1.131596767625976E-4
177 160 2.2926339170393087E-1
177 159 2.1145994463442602E-1
177 158 4.3413565882877503E-1
177 157 5.875090716943554E-2
177 156 1.73540578509596E-1
177 155 7.695814186191846E-2
177 154 4.7265072412065273E-1
177 153 5.850864729866298E-2
177 152 5.846814953265151E-2
177 151 1.3354459318355774E-1
177 150 5.822302748223111E-2
177 149 5.835572693117445E-2
178 172 2.2799578225952827E-1
178 171 2.1311288680015528E-1
178 170 4.343799940124042E-1
178 169 5.870043224620299E-2
178 168 1.7312884449338295E-1
178 167 7.74969126562426E-2
178 166 4.747196270191126E-1
178 165 5.846246805768063E-2
178 164 5.841755786736617E-2
178 163 1.3409431282511483E-1
178 162 5.8171835432937705E-2
178 161 5.830525538825483E-2
179 194 1.5441192891700228E-1
179 193 2.0693961078100379E-1
179 192 2.968096863514867E-1
179 191 1.1875123176773111E-1
179 190 1.1889566070982158E-1
179 189 1.3580637912071744E-1
179 188 4.3527795722749146E-1
179 187 4.6956051541047167E-1
179 186 1.1394338473604446E-1
179 185 1.1623390026590867E-1
179 184 5.236365474147489E-1
179 183 3.6166307571286743E-1
179 182 3.5801641198012896E-1
180 199 2.5816570650321874E-1
180 198 5.31405136500702E-1
180 197 7.283165052046293E-2
180 196 2.5288699858142055E-1
180 195 2.522793774218554E-1
181 208 1.433307005088799E-1
181 207 3.952807203117525E-1
181 206 6.0816040321008256E-2
181 205 1.801604061260242E-1
181 204 1.8037826562941617E-1
181 203 1.65707158170325E-1
181 202 4.0770400277477703E-1
181 201 1.735116459178494E-1
181 200 1.7946518201251807E-1
182 12 7.887878932995863E-5
182 11 7.88981200640547E-5
182 10 7.922259189849572E-5
182 9 7.919323177489554E-5
182 8 7.890431785136135E-5
182 7 7.918562006104759E-5
182 6 7.941646834799877E-5
182 5 7.941654571972666E-5
182 4 7.94345373402358E-5
182 3 7.943317833703222E-5
182 2 2.055937498516416E-3
182 1 7.928706608779546E-5
183 24 7.754058969983525E-5
183 23 7.756039666500212E-5
183 22 7.787995986827535E-5
183 21 7.78505526633E-5
183 20 7.75650240322876E-5
183 19 7.784240703603577E-5
183 18 7.806931727219433E-5
183 17 7.806941041235086E-5
183 16 7.808627724218246E-5
183 15 7.808552838557445E-5
183 14 2.1165945111301138E-3
183 13 7.794205205907516E-5
184 38 3.497156988696678E-4
184 37 3.498745860929582E-4
184 36 3.49882734289731E-4
184 35 3.508900398578839E-4
184 34 1.069944079054763E-3
184 33 1.022344245886402E-3
184 32 6.62048553252362E-4
184 31 1.438294065330148E-3
184 30 3.5293597574487847E-4
184 29 1.0793513521446332E-3
184 28 5.3986413457152195E-3
184 27 3.5204926515600593E-4
184 26 5.280768122538639E-4
184 25 5.493112124261753E-4
185 80 5.569820927015805E-3
185 79 5.608719782401974E-3
185 78 5.5928481605209985E-3
185 77 5.006862405339316E-3
185 76 5.024207838693377E-3
185 75 4.928693527912045E-2
185 74 5.0233563710679E-3
185 73 1.1675902140403992E-2
185 72 3.883713933737713E-2
185 71 1.498698265697105E-2
185 70 4.999490987217272E-3
185 69 5.003945085967403E-3
185 68 3.748267304235225E-2
185 67 1.753564865177781E-2
186 94 5.485474478862692E-3
186 93 5.523638731610016E-3
186 92 5.50806424287203E-3
186 91 5.515028629119368E-3
186 90 5.534199265805132E-3
186 89 5.4890165656854506E-2
186 88 5.533094682756163E-3
186 87 1.2531739365537363E-2
186 86 4.301166797396469E-2
186 85 1.6190658483591646E-2
186 84 5.506790505934083E-3
186 83 5.511875301186352E-3
186 82 4.187463950724583E-2
186 81 1.907010554883367E-2
187 102 3.484045770562317E-3
187 101 3.4855348976368045E-3
187 100 3.4855673890976306E-3
187 99 3.497037976800794E-3
187 98 1.4312816405608931E-2
187 97 3.486340138290196E-3
187 96 4.615825843307986E-3
187 95 4.661653720943286E-3
188 110 7.741313388793551E-4
188 109 7.744424534999174E-4
188 108 7.743907573108536E-4
188 107 7.78667148385311E-4
188 106 7.761518478057849E-4
188 105 1.5310290465578011E-2
188 104 1.8342128149876982E-3
188 103 1.6749762412932331E-3
189 138 9.764924574034328E-2
189 137 7.898321826092795E-3
189 136 7.853948116645035E-3
189 135 2.6875487258286965E-2
189 134 2.751620453852177E-2
189 133 4.1463053527014945E-2
189 132 7.930851519777921E-3
189 131 5.02401069065382E-2
189 130 2.028910669871894E-2
189 129 1.4889095677421603E-2
189 128 1.4878068584831627E-2
189 127 2.458096084161486E-2
189 126 5.419608469208567E-2
189 125 2.7238844646767246E-2
189 124 2.8108526303797243E-2
190 160 2.2893616799809777E-1
190 159 2.512185730814067E-1
190 158 5.8702421379591696E-2
190 157 4.3292889667583684E-1
190 156 1.7308566119773303E-1
190 155 3.2665316158398405E-1
190 154 5.8591285290964475E-2
190 153 7.271472693263488E-1
190 152 6.946244599984082E-1
190 151 2.418550700667122E-1
190 150 6.705419779769969E-1
190 149 7.075974251836661E-1
191 172 2.299962930722217E-1
191 171 2.5077250965814507E-1
191 170 5.874467507782103E-2
191 169 4.326583864946888E-1
191 168 1.734191197490971E-1
191 167 3.2082658631028543E-1
191 166 5.863282691877043E-2
191 165 7.238168874298697E-1
191 164 6.996205128764735E-1
191 163 2.3484056145657844E-1
191 162 6.671811582246491E-1
191 161 7.115068847319395E-1
192 181 1.543909094259026E-1
192 180 1.4366261337234223E-1
192 179 2.9681209733891645E-1
192 178 1.1889602498095535E-1
192 177 1.1876637562807771E-1
192 176 6.389128265883723E-2
192 175 2.4677466258561387E-1
192 174 1.5177961756301842E-1
192 173 1.382967386488518E-1
193 199 4.614222627818276E-2
193 198 3.81304535794494E-2
193 197 2.8930033962539914E-1
193 196 8.740033692216331E-2
193 195 8.713969605592674E-2
194 208 2.2782672372671675E-1
194 207 6.096751012403085E-2
194 206 3.951434489356601E-1
194 205 1.8066270538176774E-1
194 204 1.8080170910168814E-1
194 203 1.3647315845071148E-1
194 202 5.6803959500384964E-2
194 201 1.0224571070842854E-1
194 200 1.0428818788375799E-1
195 160 1.2744568690500163E-1
195 159 1.774348233737775E-2
195 158 7.8309536263848E-2
195 157 6.645508826617814E-2
195 156 6.335300371592452E-2
195 155 1.7675295649505877E-2
195 154 1.7713394518424814E-2
195 153 1.767383819080032E-2
195 152 1.766160493987722E-2
195 151 1.7692739689233048E-2
195 150 1.7587560372857698E-2
195 149 1.7627645192741865E-2
196 172 1.2786572161061788E-1
196 171 1.7866183756960648E-2
196 170 7.859394806116746E-2
196 169 6.727474117123686E-2
196 168 6.366018051167727E-2
196 167 1.779695938986793E-2
196 166 1.783554175883984E-2
196 165 1.779710079047267E-2
196 164 1.7783429263934357E-2
196 163 1.7814904529832438E-2
196 162 1.7708626624270068E-2
196 161 1.7749242227256528E-2
197 181 1.6869219576515176E-1
197 180 2.2809933444616317E-2
197 179 8.490919886406983E-2
197 178 9.093079664189115E-2
197 177 9.070765119739778E-2
197 176 2.258897667407784E-2
197 175 2.269939780424704E-2
197 174 2.2706976817976034E-2
197 173 2.27074908086821E-2
198 194 7.401373016451472E-2
198 193 1.1907697940553267E-2
198 192 4.969011608535217E-2
198 191 2.8611272877680272E-2
198 190 2.8577661462199186E-2
198 189 1.1886533516378424E-2
198 188 1.1879830129345868E-2
198 187 1.1870401317205619E-2
198 186 1.1915093386243759E-2
198 185 1.1915485037581794E-2
198 184 1.182015265879526E-2
198 183 1.1849724306046243E-2
198 182 1.1849741352734477E-2
199 208 1.250815378255891E-1
199 207 2.3464224610599015E-2
199 206 1.654922004636237E-2
199 205 1.6793729771915938E-2
199 204 1.6850074489806306E-2
199 203 1.36500521645399E-1
199 202 1.1167855828566824E-1
199 201 7.08970864453402E-2
199 200 8.454908613733207E-2
200 80 3.5990927581946856E-4
200 79 3.6242283218971676E-4
200 78 3.6139724375301225E-4
200 77 3.2353216486600384E-4
200 76 3.246529876786288E-4
200 75 7.387140685830425E-3
200 74 3.803265445474997E-3
200 73 3.2456440898771956E-4
200 72 3.245799350552066E-4
200 71 3.240139689624546E-4
200 70 3.230558404396297E-4
200 69 3.233436542628377E-4
200 68 3.22914222936709E-4
200 67 3.235146069522604E-4
201 94 3.5023773229007356E-4
201 93 3.5267445155442767E-4
201 92 3.5168004831033484E-4
201 91 3.521247119133575E-4
201 90 3.5334872277062267E-4
201 89 8.214510395041326E-3
201 88 4.01894129669343E-3
201 87 3.5327254076144394E-4
201 86 3.5326720741893103E-4
201 85 3.5264829814431853E-4
201 84 3.515987224854861E-4
201 83 3.519233775659493E-4
201 82 3.5145229235682965E-4
201 81 3.5210444337722795E-4
202 123 1.927166638721533E-3
202 122 1.9346644046394456E-3
202 121 1.9399977220954491E-3
202 120 1.94001953859416E-3
202 119 1.940691426625241E-3
202 118 4.247015421513875E-2
202 117 1.9347733832708232E-3
202 116 1.9347762461521282E-3
202 115 5.420995574468956E-3
202 114 5.40471155435475E-3
202 113 1.9261432133684604E-3
202 112 1.9307432214236936E-3
202 111 1.9307624547880802E-3
203 138 1.0581471176035968E-1
203 137 1.6663286873955303E-2
203 136 1.6122603817985582E-3
203 135 1.7944403615257804E-2
203 134 1.9190237746600253E-2
203 133 3.121742068984857E-3
203 132 5.353476703230389E-3
203 131 1.6246845020080497E-3
203 130 1.6297853980999748E-3
203 129 2.25187112834017E-3
203 128 2.22051753142183E-3
203 127 1.618783405570487E-3
203 126 1.6170682229906044E-3
203 125 1.6228097457462382E-3
203 124 1.6227942551468454E-3
204 160 2.792158395805758E-2
204 159 2.0042348609268765E-1
204 158 1.1287964016509562E-1
204 157 1.1351179943228444E-1
204 156 1.0079515747200968E-1
204 155 3.343687419839887E-1
204 154 1.5687070093656053E-1
204 153 2.7812279752373454E-2
204 152 2.779302900484023E-2
204 151 1.3480640334849503E-1
204 150 2.7676509424324765E-2
204 149 2.7739588547965387E-2
205 172 2.7920857069195497E-2
205 171 1.9967992249655453E-1
205 170 1.1354422186439611E-1
205 169 1.1290671604163247E-1
205 168 1.008415348695436E-1
205 167 3.3826007198061686E-1
205 166 1.5644431342916246E-1
205 165 2.7813391627831304E-2
205 164 2.77920257027721E-2
205 163 1.3648905216461119E-1
205 162 2.7675123790698183E-2
205 161 2.7738598043351045E-2
206 181 2.8534457980053756E-2
206 180 1.949788583030911E-1
206 179 1.0945602270733093E-1
206 178 1.0293407945208231E-1
206 177 1.0326275201190674E-1
206 176 6.120961845797909E-1
206 175 2.4674009893189475E-1
206 174 2.080182387188276E-1
206 173 2.0824443736862291E-1
207 194 2.8657601709216135E-2
207 193 2.4096597894014193E-1
207 192 1.0965846419096166E-1
207 191 1.0330189791000806E-1
207 190 1.0354574526848472E-1
207 189 2.94236331760564E-1
207 188 2.8539255590336075E-2
207 187 2.851660448534097E-2
207 186 1.0489586247353708E-1
207 185 1.0540617138987618E-1
207 184 2.8395890696521528E-2
207 183 2.8466931510231337E-2
207 182 2.8466972461977883E-2
208 199 2.1195416699310354E-1
208 198 1.6394475020026597E-2
208 197 3.401376873447864E-2
208 196 2.737508331889307E-2
208 195 2.7431686071640968E-2
