%%MatrixMarket matrix coordinate real general
%Complete acoustic radiance transfer reflection kernel, w.r.t. frequency band #1 (center freq. 125.00Hz). Includes energy losses due to surface materials and air absorption over propagation paths.
208 208 2354
1 24 1.1194397344146022E-1
1 23 1.119468383242635E-1
1 22 1.5413606099138255E-1
1 21 1.6459034455842367E-1
1 20 1.1194750753070022E-1
1 19 3.496594657523963E-1
1 18 2.5388358099293434E-1
1 17 2.533134493707288E-1
1 16 2.22958758603891E-1
1 15 2.2326678006401843E-1
1 14 2.230586547228519E-1
1 13 4.0387658163356244E-1
2 38 1.766085198305954E-1
2 37 4.91074027006873E-1
2 36 8.352728868330743E-2
2 35 1.6104482083544097E-1
2 34 1.7393326453562682E-1
2 33 1.806703274550988E-1
2 32 4.6240637964564296E-1
2 31 8.356117873046838E-2
2 30 2.902318150289157E-1
2 29 2.898198137495665E-1
2 28 2.2116007618567196E-1
2 27 2.1926616782079744E-1
2 26 5.591295003844413E-1
2 25 8.360285919960371E-2
3 43 3.157016342097494E-1
3 42 1.7142311982941738E-1
3 41 2.1741078503680178E-1
3 40 5.54059660531965E-1
3 39 8.312588624294537E-2
4 48 1.4468642526844927E-1
4 47 3.1891814451008865E-1
4 46 2.0394981443748458E-1
4 45 5.174977902108004E-1
4 44 7.969944838144649E-2
5 57 1.8887883100577155E-1
5 56 4.270354642217435E-1
5 55 7.94920539390841E-2
5 54 2.080166198385852E-1
5 53 2.5820553869653495E-1
5 52 1.9243274569514787E-1
5 51 2.502652853503003E-1
5 50 4.961053408870924E-1
5 49 7.951945255378748E-2
6 66 1.8334631700092605E-1
6 65 4.1843934125555826E-1
6 64 7.948496158244261E-2
6 63 2.076708352922107E-1
6 62 1.885703861807974E-1
6 61 2.549134548330285E-1
6 60 2.494061147859137E-1
6 59 4.960793091292357E-1
6 58 7.951944479202727E-2
7 94 1.2632055590209693E-2
7 93 2.992045733518371E-2
7 92 1.2637258323895333E-2
7 91 1.7873475632587316E-2
7 90 3.605631981393864E-2
7 89 3.485304365110213E-2
7 88 4.251926031287976E-2
7 87 1.2642980077738876E-2
7 86 1.2642960954815423E-2
7 85 5.346316961104875E-2
7 84 1.2636965486139946E-2
7 83 1.2638134132058785E-2
7 82 1.2636438064270299E-2
7 81 1.2638785476605638E-2
8 123 1.8254494362465786E-3
8 122 4.950409056873876E-3
8 121 3.2097095053918016E-3
8 120 1.8266656401737804E-3
8 119 4.787994997158561E-3
8 118 3.2574716489225178E-3
8 117 1.2855274279631042E-2
8 116 1.2308290883183734E-2
8 115 6.493134880156808E-3
8 114 1.8270536404982325E-3
8 113 1.136549490211491E-2
8 112 2.9155219545992917E-2
8 111 1.8257904380238111E-3
9 138 4.162048876760824E-3
9 137 1.9578870476524346E-2
9 136 4.162322605652809E-3
9 135 1.2705974164698123E-2
9 134 4.164611815730025E-3
9 133 1.2923486870445804E-2
9 132 1.8748905929522674E-2
9 131 4.165525357458637E-3
9 130 4.166833787626117E-3
9 129 2.452361180361951E-2
9 128 4.166468256534867E-3
9 127 4.164006956256565E-3
9 126 4.163564672702958E-3
9 125 4.165043516395765E-3
9 124 4.165039532947052E-3
10 148 1.559608560272347E-2
10 147 2.8140760211295645E-2
10 146 5.049374185593154E-3
10 145 5.047900250379356E-3
10 144 2.999936221952371E-2
10 143 5.048877388656168E-3
10 142 5.046334181098977E-3
10 141 5.0455682469103666E-3
10 140 5.0473447543528715E-3
10 139 5.0473363890634814E-3
11 172 1.584344627731748E-5
11 171 1.584347457392231E-5
11 170 2.1224789732058252E-4
11 169 1.5843772882627005E-5
11 168 1.5840856755711783E-5
11 167 1.5837313361342816E-5
11 166 1.5840750035455524E-5
11 165 1.5837325968895276E-5
11 164 1.5836106563601593E-5
11 163 1.5838912650874805E-5
11 162 1.5829419417350856E-5
11 161 1.5833053547631426E-5
12 194 9.378150039028749E-5
12 193 9.3764634799478E-5
12 192 4.8395736498286904E-4
12 191 2.854546219905365E-4
12 190 9.378457733967835E-5
12 189 9.374792380077688E-5
12 188 9.37426252485551E-5
12 187 9.373516779523254E-5
12 186 9.37704676670095E-5
12 185 9.377077647398741E-5
12 184 9.369533311768528E-5
12 183 9.371879484532446E-5
12 182 9.37188083544234E-5
13 12 1.1193313281483531E-1
13 11 1.1193588112743612E-1
13 10 1.523511969399789E-1
13 9 1.6418737512055176E-1
13 8 1.1193676215595479E-1
13 7 3.487561009050044E-1
13 6 2.5393083247532666E-1
13 5 2.534247756780179E-1
13 4 2.2300922009206986E-1
13 3 2.2258620279795677E-1
13 2 2.2328679104347726E-1
13 1 4.0391288052088753E-1
14 38 1.7340454320612625E-1
14 37 8.338420547702383E-2
14 36 4.6825174511332873E-1
14 35 1.617339936347508E-1
14 34 1.7305468818753833E-1
14 33 1.8074454681745775E-1
14 32 8.341825422692596E-2
14 31 4.6107107062365277E-1
14 30 2.8739339960043364E-1
14 29 2.8871208224696193E-1
14 28 2.2016000663687102E-1
14 27 2.186445455217809E-1
14 26 8.345981483870275E-2
14 25 5.599381337452657E-1
15 43 3.144966704386158E-1
15 42 1.6985985152527155E-1
15 41 2.1595114016706046E-1
15 40 8.277367933795357E-2
15 39 5.505661006419664E-1
16 48 1.4363517659027977E-1
16 47 3.1927500950216814E-1
16 46 2.0378300132825414E-1
16 45 7.966073309215109E-2
16 44 5.150954261146216E-1
17 57 1.8812187916046805E-1
17 56 7.953377760540654E-2
17 55 4.277828155470105E-1
17 54 2.0794505352205125E-1
17 53 2.5802205540007156E-1
17 52 1.9295056902463134E-1
17 51 2.502353270735982E-1
17 50 7.956109334885156E-2
17 49 4.968500526719549E-1
18 66 1.8311789248562357E-1
18 65 7.952642313174477E-2
18 64 4.2685476751016915E-1
18 63 2.0735281757187796E-1
18 62 1.880758285474226E-1
18 61 2.555984191916969E-1
18 60 2.5008648219041896E-1
18 59 7.956108383902978E-2
18 58 4.958958267092631E-1
19 80 1.2897225420325223E-2
19 79 3.0423535125736593E-2
19 78 1.2902558199880851E-2
19 77 1.7857018228492862E-2
19 76 3.716677793389851E-2
19 75 3.548174066919082E-2
19 74 4.314927284950043E-2
19 73 1.2908278695811206E-2
19 72 1.290834055897983E-2
19 71 5.454000441133293E-2
19 70 1.2902254857698638E-2
19 69 1.2903406111861792E-2
19 68 1.2901688042683383E-2
19 67 1.2904089476841544E-2
20 123 1.8153639291237952E-3
20 122 4.584850677576951E-3
20 121 1.8165713668519064E-3
20 120 3.1210048530200653E-3
20 119 4.734521169451268E-3
20 118 3.1974902010116477E-3
20 117 1.2567746164851646E-2
20 116 1.3123937686962083E-2
20 115 1.8169563280400502E-3
20 114 6.564232319365825E-3
20 113 1.2201769699974213E-2
20 112 1.815701234548332E-3
20 111 2.4115440083169893E-2
21 138 4.171452747236078E-3
21 137 1.9253923885053023E-2
21 136 4.171727094600146E-3
21 135 4.174011585812464E-3
21 134 1.4930125265863235E-2
21 133 1.2803404291221272E-2
21 132 1.8779919692763783E-2
21 131 4.174937082809016E-3
21 130 4.176248469286762E-3
21 129 4.1758825513168426E-3
21 128 2.465937553886655E-2
21 127 4.173415250881198E-3
21 126 4.1729719680175465E-3
21 125 4.1744541530585565E-3
21 124 4.174450160609509E-3
22 148 1.5487816586783094E-2
22 147 2.8366004079470583E-2
22 146 5.038277504263249E-3
22 145 5.036806808221033E-3
22 144 5.0377888460155255E-3
22 143 2.996232587183342E-2
22 142 5.035244180589284E-3
22 141 5.0344799296444375E-3
22 140 5.036252532972047E-3
22 139 5.03624418606651E-3
23 160 1.6654325463726716E-5
23 159 1.665434283506628E-5
23 158 2.1644864173251354E-4
23 157 1.6654675307960576E-5
23 156 1.665160465035923E-5
23 155 1.6647919352779216E-5
23 154 1.6651511229390334E-5
23 153 1.6647781805759795E-5
23 152 1.6646626887585112E-5
23 151 1.6649564818983338E-5
23 150 1.6639620770067743E-5
23 149 1.6643416959909694E-5
24 194 9.863486889709074E-5
24 193 9.861713048033005E-5
24 192 5.006974813764784E-4
24 191 9.863810048517606E-5
24 190 3.200953038407477E-4
24 189 9.859955465610923E-5
24 188 9.859398189387398E-5
24 187 9.858613850335757E-5
24 186 9.862326520969425E-5
24 185 9.862358999801234E-5
24 184 9.854424230654817E-5
24 183 9.856891822258873E-5
24 182 9.856893243080887E-5
25 12 7.804796355941814E-1
25 11 7.309961661176352E-1
25 10 3.795968043989088E-1
25 9 4.664153063273504E-1
25 8 7.587666347803954E-1
25 7 4.428358351302209E-1
25 6 2.4465627483511426E-1
25 5 2.4444131798730606E-1
25 4 4.596140480284588E-1
25 3 4.6266794458780125E-1
25 2 6.268365166870397E-2
25 1 1.8546386568027415E-1
26 24 7.713778662916249E-1
26 23 7.598080453037312E-1
26 22 3.7441596104498825E-1
26 21 4.637915579353408E-1
26 20 7.597472190647304E-1
26 19 4.4119111665843475E-1
26 18 2.4330339435757065E-1
26 17 2.4611286990249331E-1
26 16 4.6263708223500355E-1
26 15 4.6248881481556703E-1
26 14 6.262997634872668E-2
26 13 1.8502411794929693E-1
27 43 1.882643904639638E-1
27 42 6.801262086813478E-2
27 41 3.0666445667012254E-1
27 40 1.2494165054486218E-1
27 39 1.2568550104867818E-1
28 48 6.419208639688978E-2
28 47 1.9306934319140384E-1
28 46 2.60356254356348E-1
28 45 1.1664211576620395E-1
28 44 1.170145336509666E-1
29 57 4.9005345022806457E-1
29 56 3.908326218813073E-1
29 55 3.8223961202154794E-1
29 54 1.8669105105970005E-1
29 53 3.8751285235121363E-1
29 52 4.6229876282645604E-1
29 51 6.112437682717684E-2
29 50 1.9358127501619954E-1
29 49 1.9316720277445856E-1
30 66 4.8850960103343427E-1
30 65 3.8975950153135813E-1
30 64 3.864050196863974E-1
30 63 1.8656479482855137E-1
30 62 4.587340565435429E-1
30 61 3.9064237876890384E-1
30 60 6.097296520961692E-2
30 59 1.922563562575214E-1
30 58 1.9248897175481772E-1
31 80 4.077567019277608E-3
31 79 4.859093790673254E-2
31 78 4.079253022687523E-3
31 77 5.545524720688493E-3
31 76 2.2797491277742138E-2
31 75 2.6272081402550527E-2
31 74 7.611174886735876E-2
31 73 4.081061605912158E-3
31 72 4.0810811644767225E-3
31 71 6.298445184567292E-3
31 70 4.079157118488175E-3
31 69 4.079521097239689E-3
31 68 4.078977915121799E-3
31 67 4.0797371488641865E-3
32 94 3.989937203332874E-3
32 93 4.7684859014996424E-2
32 92 3.991580528961322E-3
32 91 5.565022823125076E-3
32 90 2.208288645753757E-2
32 89 2.5746762738785147E-2
32 88 7.456537197840961E-2
32 87 3.993387791315864E-3
32 86 3.993381751185405E-3
32 85 6.175837829257518E-3
32 84 3.991488033781387E-3
32 83 3.991857160072496E-3
32 82 3.991321443306502E-3
32 81 3.992062892529982E-3
33 123 6.174161976417407E-3
33 122 2.09149034169576E-2
33 121 7.315118149718962E-3
33 120 7.383284038233965E-3
33 119 2.101086714871316E-2
33 118 1.2355116674297178E-2
33 117 7.591023151889266E-2
33 116 7.53841090176529E-2
33 115 1.0370957981629935E-2
33 114 1.021305741422005E-2
33 113 9.161962192290937E-2
33 112 3.724285697293286E-2
33 111 3.988451381039689E-2
34 138 4.0748500997063895E-3
34 137 4.814460121364977E-2
34 136 4.075118093724677E-3
34 135 8.775135222559849E-3
34 134 8.613818903648937E-3
34 133 7.759388659734375E-3
34 132 5.151192153183522E-2
34 131 4.0782537449151725E-3
34 130 4.079534762259343E-3
34 129 9.364642159867716E-3
34 128 9.3292130054642E-3
34 127 4.07676715562397E-3
34 126 4.076334138320262E-3
34 125 4.07778199886864E-3
34 124 4.077778098876866E-3
35 148 9.528412377408502E-3
35 147 7.633024379679888E-2
35 146 3.8450609122487158E-3
35 145 3.8439385215386095E-3
35 144 9.358803379109503E-3
35 143 9.322939906423322E-3
35 142 3.8427459714215993E-3
35 141 3.8421627182298698E-3
35 140 3.8435155154432324E-3
35 139 3.8435091453375377E-3
36 160 9.935495189495985E-6
36 159 9.935505552741321E-6
36 158 3.129890082913068E-4
36 157 9.93570389657993E-6
36 156 9.93387202990402E-6
36 155 9.931673486561161E-6
36 154 9.933816297620588E-6
36 153 9.931591429935523E-6
36 152 9.93090243871857E-6
36 151 9.932655124730242E-6
36 150 9.926722788990787E-6
36 149 9.9289874874918E-6
37 172 9.864120814221794E-6
37 171 9.864138431672176E-6
37 170 2.7760183904543956E-4
37 169 9.864324158505313E-6
37 168 9.862508579514614E-6
37 167 9.860302464157126E-6
37 166 9.862442135542599E-6
37 165 9.860310313612255E-6
37 164 9.859551112556634E-6
37 163 9.861298180927602E-6
37 162 9.855387699031255E-6
37 161 9.85765030651669E-6
38 194 3.1933566203063785E-4
38 193 3.1927823295790735E-4
38 192 2.4716614409596976E-3
38 191 4.779433469691976E-4
38 190 5.116731891201047E-4
38 189 3.192213302872185E-4
38 188 3.1920328817150803E-4
38 187 3.191778947753274E-4
38 186 3.192980944722461E-4
38 185 3.1929914599179227E-4
38 184 3.1904225359798014E-4
38 183 3.1912214319557516E-4
38 182 3.191221891954476E-4
39 12 2.8994070566370708E-2
39 11 2.8994782462549096E-2
39 10 2.900670800993941E-2
39 9 2.900563076242475E-2
39 8 2.8995010675611655E-2
39 7 2.9005351422443947E-2
39 6 1.389652841579802E-1
39 5 8.883153732850826E-2
39 4 2.9014473614713383E-2
39 3 2.9014423881926647E-2
39 2 2.139511109897556E-1
39 1 8.552426303442891E-2
40 24 2.9143331039264395E-2
40 23 2.914407687868172E-2
40 22 2.9156086064911546E-2
40 21 2.915498283318269E-2
40 20 2.9144251098910993E-2
40 19 2.915467717667676E-2
40 18 1.3977884036696733E-1
40 17 8.865936469897626E-2
40 16 2.916381547202229E-2
40 15 2.9163787451007787E-2
40 14 2.1446379729608847E-1
40 13 8.607219741285993E-2
41 38 3.1848322592975764E-2
41 37 3.184977222418638E-2
41 36 3.184984654918477E-2
41 35 3.185902262409926E-2
41 34 2.3009657272027909E-1
41 33 1.9018352617080034E-1
41 32 1.1661106639796583E-1
41 31 1.1671971235459401E-1
41 30 7.047182213352875E-2
41 29 8.155161734352408E-2
41 28 1.2794332194571065E-1
41 27 1.663010307690479E-1
41 26 5.878781803079965E-2
41 25 5.869664192428645E-2
42 57 6.75919952710497E-3
42 56 6.759877343957411E-3
42 55 6.7598684286536625E-3
42 54 3.777760125002603E-2
42 53 6.762728049268808E-3
42 52 6.759164742733165E-3
42 51 3.116516735225725E-2
42 50 1.204752298564779E-2
42 49 1.2043037114366597E-2
43 66 5.2362811868060403E-2
43 65 5.236775015353049E-2
43 64 5.2367851239203914E-2
43 63 1.4101039535368634E-1
43 62 5.2363272133692185E-2
43 61 5.2393388989947234E-2
43 60 3.555432512030979E-1
43 59 1.771314253725651E-1
43 58 1.7722734861456885E-1
44 12 2.0565713333496664E-2
44 11 2.0566218286835122E-2
44 10 2.057467716770915E-2
44 9 2.0573913067907262E-2
44 8 2.0566380160084784E-2
44 7 2.0573714929948174E-2
44 6 5.9408077649081056E-2
44 5 1.0376903458526675E-1
44 4 2.0580185369852667E-2
44 3 2.058015009401125E-2
44 2 1.5052925810278306E-1
44 1 6.0667848066579294E-2
45 24 2.0415606776836473E-2
45 23 2.041612925534939E-2
45 22 2.0424541980149022E-2
45 21 2.0423769139696096E-2
45 20 2.0416251300824854E-2
45 19 2.0423555019936573E-2
45 18 5.9188701730253056E-2
45 17 1.011272696938412E-1
45 16 2.0429956616381865E-2
45 15 2.042993698698491E-2
45 14 1.5020685355994262E-1
45 13 6.0212041728828845E-2
46 38 3.72760766112564E-1
46 37 3.4784461977232933E-1
46 36 2.912923749369564E-1
46 35 1.496772761251309E-1
46 34 2.2105287870512514E-2
46 33 1.7766181988515345E-1
46 32 8.913410638486519E-2
46 31 8.800062248042934E-2
46 30 5.704243091686898E-2
46 29 4.5648464980516744E-2
46 28 1.2819997445352285E-1
46 27 8.903681126236264E-2
46 26 4.12037876128093E-2
46 25 4.1209186407320464E-2
47 57 4.65464643242531E-2
47 56 4.6551132033471325E-2
47 55 4.655107063923874E-2
47 54 1.1906512821980136E-1
47 53 4.6570763093709125E-2
47 52 4.6546224785604356E-2
47 51 3.25898759501668E-1
47 50 1.6515459545071084E-1
47 49 1.6482566479607202E-1
48 66 3.916194361726558E-3
48 65 3.91656369417882E-3
48 64 3.916571254337073E-3
48 63 2.3549298695482127E-2
48 62 3.9162287848143905E-3
48 61 3.9184812127962204E-3
48 60 1.7620756054330857E-2
48 59 6.7724906010714495E-3
48 58 6.787878884379011E-3
49 12 2.9779678162653197E-2
49 11 2.9780409347983976E-2
49 10 3.637873467043089E-1
49 9 2.9791551587503927E-2
49 8 2.9780643744583786E-2
49 7 7.399317624898663E-2
49 6 2.173865908574741E-1
49 5 2.9799957731965303E-2
49 4 1.5614771324240312E-1
49 3 9.337457819088708E-2
49 2 1.2039456836927637E-1
49 1 1.0753073859685451E-1
50 24 2.9778152540462243E-2
50 23 2.977891462630308E-2
50 22 3.6839389017615953E-1
50 21 2.979005814233739E-2
50 20 2.9779092641525704E-2
50 19 7.44471769020777E-2
50 18 2.1762914008399492E-1
50 17 2.97984382416515E-2
50 16 1.531617839303259E-1
50 15 9.291965930335937E-2
50 14 1.2114398540951803E-1
50 13 1.0755418425734035E-1
51 38 1.603134017084906E-1
51 37 1.5286721602314227E-1
51 36 1.4607261490698395E-1
51 35 4.4023576997917313E-1
51 34 3.056588429004338E-2
51 33 3.123934300679303E-2
51 32 9.470170642645717E-2
51 31 9.419531269276106E-2
51 30 2.1794931438577936E-1
51 29 3.058497105871646E-2
51 28 9.65738697131258E-2
51 27 1.2792648285982294E-1
51 26 1.1065564951198055E-1
51 25 1.1036433298634883E-1
52 43 1.1532027228431521E-1
52 42 7.196642334840013E-3
52 41 7.197965359081256E-3
52 40 1.925326657331823E-2
52 39 1.9754117353922466E-2
53 48 6.333371296609855E-1
53 47 6.76528168552384E-2
53 46 3.1507550861160066E-1
53 45 2.621361204413296E-1
53 44 2.626877650630435E-1
54 66 7.194082665525697E-2
54 65 4.091833345951342E-2
54 64 3.756027570389268E-2
54 63 2.0059099161814428E-1
54 62 9.248975920745492E-2
54 61 2.8055629458377692E-2
54 60 3.1871374412688946E-2
54 59 2.8499195284014754E-2
54 58 2.851947780439354E-2
55 80 6.464843438396675E-4
55 79 6.469353112132764E-4
55 78 6.46751653929978E-4
55 77 6.468319276695946E-4
55 76 1.4517572225035196E-2
55 75 6.470564552973184E-4
55 74 6.470451009864188E-4
55 73 6.47038398631838E-4
55 72 6.470414995755428E-4
55 71 6.469283739420139E-4
55 70 6.467364486462649E-4
55 69 6.467941562359211E-4
55 68 6.467080365637221E-4
55 67 6.468284104841133E-4
56 94 6.433172778100008E-4
56 93 6.437643365701838E-4
56 92 6.435822393159026E-4
56 91 6.436637253979046E-4
56 90 1.4297260215754995E-2
56 89 6.438870750109088E-4
56 88 6.438746659982504E-4
56 87 6.438736331496805E-4
56 86 6.438726592696202E-4
56 85 6.437595533384005E-4
56 84 6.435673258612958E-4
56 83 6.43626841915976E-4
56 82 6.435404656563975E-4
56 81 6.436600131760141E-4
57 148 2.8727358232436856E-2
57 147 6.9154769353726095E-3
57 146 4.661916004948982E-3
57 145 4.660555170534477E-3
57 144 8.782195732102977E-3
57 143 8.814305924223713E-3
57 142 4.65910927185977E-3
57 141 4.658402110789629E-3
57 140 4.660042299885291E-3
57 139 4.6600345764971915E-3
58 12 2.977598189121281E-2
58 11 2.977671298578843E-2
58 10 2.9788960141023977E-2
58 9 2.6811957514299817E-1
58 8 2.9776947353294794E-2
58 7 6.103779036790935E-2
58 6 2.9796256035049873E-2
58 5 2.155557583646813E-1
58 4 8.8823331473203E-2
58 3 1.4855377902631753E-1
58 2 1.2111019963284538E-1
58 1 1.0772037948200877E-1
59 24 2.9775180270217964E-2
59 23 2.9775942279992123E-2
59 22 2.978821183436839E-2
59 21 2.694600813180258E-1
59 20 2.9776120277446375E-2
59 19 6.1056327613733745E-2
59 18 2.9795460385206043E-2
59 17 2.1561978233764906E-1
59 16 8.951648347370303E-2
59 15 1.491321341644778E-1
59 14 1.204649554477045E-1
59 13 1.077701182404859E-1
60 38 3.042581269683372E-2
60 37 3.042719758005841E-2
60 36 3.0427268585320088E-2
60 35 3.0436034809532535E-2
60 34 3.427828427568269E-1
60 33 3.042711880641591E-2
60 32 8.295962494499474E-2
60 31 8.261655230698821E-2
60 30 3.0453769002928597E-2
60 29 2.1600319885954133E-1
60 28 1.2797261866754533E-1
60 27 1.0542750995246652E-1
60 26 1.0982472726133755E-1
60 25 1.1017508817010342E-1
61 43 5.578248277424211E-2
61 42 5.692938617170986E-1
61 41 2.4152194044113268E-1
61 40 2.0891449069756388E-1
61 39 2.097876889524115E-1
62 48 5.685933043117064E-3
62 47 9.051502308743163E-2
62 46 5.687357226804068E-3
62 45 1.3361759343572135E-2
62 44 1.3543476302799996E-2
63 57 6.143173686411535E-2
63 56 2.7650869941358572E-2
63 55 3.4357552024308305E-2
63 54 2.0053436068468428E-1
63 53 2.6607988693166915E-2
63 52 8.125927369309736E-2
63 51 3.1912003996332185E-2
63 50 2.845312093933523E-2
63 49 2.8494470772972853E-2
64 80 3.575814595110612E-4
64 79 3.578308972169911E-4
64 78 3.577293132574761E-4
64 77 3.5777371402486677E-4
64 76 3.5789770100836424E-4
64 75 6.944534539754912E-3
64 74 3.5789162380332496E-4
64 73 3.578879166172871E-4
64 72 3.578896318018641E-4
64 71 3.578270600945508E-4
64 70 3.577209029570656E-4
64 69 3.577528220040321E-4
64 68 3.577051877521419E-4
64 67 3.5777176860990077E-4
65 94 3.453540429875091E-4
65 93 3.455940389515656E-4
65 92 3.454962831082948E-4
65 91 3.4554002753866734E-4
65 90 3.4566018007563124E-4
65 89 6.769941452453326E-3
65 88 3.456532674463652E-4
65 87 3.456527129790103E-4
65 86 3.4565219016790633E-4
65 85 3.455914711541631E-4
65 84 3.4548827707142773E-4
65 83 3.455202272627493E-4
65 82 3.4547385762292694E-4
65 81 3.4553803469488314E-4
66 138 2.318556250576041E-3
66 137 7.091209805059084E-3
66 136 2.3187087369721084E-3
66 135 3.160713913847428E-3
66 134 2.825143716548344E-3
66 133 1.7918352280311235E-2
66 132 2.320973632327046E-3
66 131 2.320492896754544E-3
66 130 2.3212217851057097E-3
66 129 4.156471080441337E-3
66 128 4.1883131740847535E-3
66 127 2.3196470396533446E-3
66 126 2.3194006563627815E-3
66 125 2.3202244771272913E-3
66 124 2.320222258063992E-3
67 24 7.595671958616389E-3
67 23 7.5958663479104675E-3
67 22 7.598996320903905E-3
67 21 7.5987087838925915E-3
67 20 7.595911755201362E-3
67 19 7.5986291201593035E-3
67 18 1.247872220942822E-2
67 17 1.4542950619191437E-2
67 16 7.601010848370539E-3
67 15 7.6010035452096945E-3
67 14 3.683676820889836E-2
67 13 2.7867714494204086E-2
68 38 4.730350336987417E-3
68 37 3.19907144193787E-3
68 36 3.199078907328143E-3
68 35 3.200000575433064E-3
68 34 3.6373649859819663E-3
68 33 2.9393692296267145E-2
68 32 3.13571459154346E-2
68 31 3.2003768895415012E-3
68 30 5.862170612838488E-3
68 29 6.441750537818137E-3
68 28 1.2866066159792897E-2
68 27 1.1537719912627246E-2
68 26 1.0716142456234992E-2
68 25 3.201973243400944E-3
69 57 1.01108696636035E-3
69 56 1.0111883588081291E-3
69 55 1.0111870251964517E-3
69 54 2.0697314172598417E-3
69 53 1.011614786667483E-3
69 52 1.0110817630777978E-3
69 51 4.5173205288676944E-3
69 50 3.979932618328755E-3
69 49 1.011535552153846E-3
70 66 5.557003529577631E-4
70 65 5.557527605134468E-4
70 64 5.557538332851791E-4
70 63 1.5357532051142422E-3
70 62 5.557052375268858E-4
70 61 5.56024852670799E-4
70 60 2.298354514944183E-3
70 59 1.9757574404379316E-3
70 58 5.559949377095774E-4
71 94 7.956458237189104E-2
71 93 1.4225931398974936E-1
71 92 7.959735244085835E-2
71 91 2.030446695902986E-1
71 90 1.5267360285088363E-1
71 89 1.524311464000983E-1
71 88 1.801088459233513E-1
71 87 1.8551168409558264E-1
71 86 1.856292840294716E-1
71 85 3.218459972522753E-1
71 84 7.959550796562281E-2
71 83 7.960286882813715E-2
71 82 9.065854047223285E-2
71 81 2.7515251383774947E-1
72 102 9.441666820341313E-2
72 101 1.7279601378996298E-1
72 100 5.954663234055706E-2
72 99 9.359536076030656E-2
72 98 2.5998796035026317E-1
72 97 1.4976209189306083E-1
72 96 3.2924472522614323E-1
72 95 5.957642446951889E-2
73 110 2.223248851168106E-1
73 109 5.92258353154924E-1
73 108 5.9566649929884564E-2
73 107 2.595270230261211E-1
73 106 9.768476992347394E-2
73 105 1.5093674290985237E-1
73 104 3.277259669322877E-1
73 103 5.959203205180732E-2
74 123 1.1303221530473533E-1
74 122 1.7399342223513403E-1
74 121 4.169915275198388E-1
74 120 6.497524930693913E-2
74 119 1.775907341509393E-1
74 118 2.0703526291283314E-1
74 117 1.849413542510232E-1
74 116 1.82497616791361E-1
74 115 4.150192576639195E-1
74 114 6.498905063831473E-2
74 113 1.548387447201599E-1
74 112 3.917110455804329E-1
74 111 6.494411800592949E-2
75 138 1.250475385268846E-1
75 137 1.7389505729798405E-1
75 136 8.195965263270255E-2
75 135 3.908072861777558E-1
75 134 6.705182245272635E-2
75 133 1.8601526738505414E-1
75 132 2.4423711164893128E-1
75 131 1.8754506603415697E-1
75 130 2.669749923748213E-1
75 129 4.6564102377548816E-1
75 128 6.708171185052571E-2
75 127 1.721302528589268E-1
75 126 1.5294836249085206E-1
75 125 4.6663829440580773E-1
75 124 6.70587088613918E-2
76 148 1.9502951081161132E-1
76 147 2.0068140103071522E-1
76 146 2.7606844589261503E-1
76 145 2.0939455437118384E-1
76 144 4.883909425015823E-1
76 143 6.90509039615484E-2
76 142 1.8277949942613708E-1
76 141 1.6721740363607712E-1
76 140 4.9583728992920195E-1
76 139 6.90298285012652E-2
77 172 1.425857758985471E-2
77 171 4.325285868877931E-3
77 170 1.2428632554928869E-2
77 169 7.841564085516613E-3
77 168 1.883772570061115E-2
77 167 4.323603851112138E-3
77 166 4.324542066899734E-3
77 165 4.323607292987734E-3
77 164 4.323274394010265E-3
77 163 4.324040458901716E-3
77 162 4.3214487957776E-3
77 161 4.322440917314758E-3
78 181 2.5704557317846395E-3
78 180 4.7276019074383416E-4
78 179 1.41658274528731E-3
78 178 2.24422750620997E-3
78 177 4.7275085291683023E-4
78 176 4.72299324940856E-4
78 175 4.72530153041296E-4
78 174 4.7254595865364296E-4
78 173 4.7254703037741556E-4
79 194 1.9211862843488997E-2
79 193 4.4452277845239765E-3
79 192 1.3105289080425542E-2
79 191 4.1498987516355994E-2
79 190 4.4461732276964705E-3
79 189 4.444435543441908E-3
79 188 4.444184347758115E-3
79 187 4.443830802108605E-3
79 186 4.445504311221595E-3
79 185 4.445518951254708E-3
79 184 4.441942305280357E-3
79 183 4.4430545873662165E-3
79 182 4.443055227810474E-3
80 208 4.086550662180397E-3
80 207 8.117325040794927E-4
80 206 1.1954483746662472E-3
80 205 1.97551327405067E-3
80 204 5.677160037408639E-4
80 203 8.25219398162007E-3
80 202 5.672421470198441E-4
80 201 6.811180447055271E-3
80 200 5.672486107118552E-4
81 12 7.600938921471211E-3
81 11 7.601125548573397E-3
81 10 7.604251889771724E-3
81 9 7.603969484010743E-3
81 8 7.601185375755841E-3
81 7 7.603896253653953E-3
81 6 1.2495337941466492E-2
81 5 1.4385801596292285E-2
81 4 7.6062876814498945E-3
81 3 7.606274643754013E-3
81 2 3.7024031800048825E-2
81 1 2.782409401564809E-2
82 38 7.791629140901288E-3
82 37 3.1970991544827292E-3
82 36 3.1971066152704495E-3
82 35 3.198027715149723E-3
82 34 4.072964161352075E-3
82 33 2.9394012063020798E-2
82 32 3.198404644280234E-3
82 31 3.087004164657443E-2
82 30 5.916356612565481E-3
82 29 6.352487956650468E-3
82 28 1.2931753143899792E-2
82 27 1.1427592024854286E-2
82 26 3.1999981522594875E-3
82 25 1.0652287545675414E-2
83 57 1.0059940528770143E-3
83 56 1.0060949346041713E-3
83 55 1.006093607709986E-3
83 54 2.2078280329422325E-3
83 53 1.0065192145175355E-3
83 52 1.0059888758037485E-3
83 51 4.518085504360582E-3
83 50 1.0064404762336829E-3
83 49 3.924986479018755E-3
84 66 5.554573228389011E-4
84 65 5.555097074746526E-4
84 64 5.555107797772187E-4
84 63 1.6061477517021444E-3
84 62 5.554622052718054E-4
84 61 5.557816806351587E-4
84 60 2.281087580983584E-3
84 59 5.557518202040641E-4
84 58 1.9909902632249963E-3
85 80 8.128711583839042E-2
85 79 1.4787357504272586E-1
85 78 8.132072665431024E-2
85 77 2.0530838700682552E-1
85 76 1.5590414007164233E-1
85 75 1.5578041300622644E-1
85 74 1.8405351029268927E-1
85 73 1.8831176138712724E-1
85 72 1.9135396717718856E-1
85 71 3.2874066004295016E-1
85 70 8.131881478487317E-2
85 69 8.132607077424064E-2
85 68 9.246321087381763E-2
85 67 2.8050737246470414E-1
86 102 9.595341249658686E-2
86 101 5.989198066912415E-2
86 100 2.045550610522614E-1
86 99 9.63705145667948E-2
86 98 2.622321342112328E-1
86 97 1.508945574349097E-1
86 96 5.992205128421941E-2
86 95 3.311765812806853E-1
87 110 2.3461349614306576E-1
87 109 5.987888360290924E-2
87 108 6.176784450526845E-1
87 107 2.6303716013350636E-1
87 106 9.421099245159621E-2
87 105 1.5093517562174372E-1
87 104 5.9904425520942224E-2
87 103 3.2966077372264585E-1
88 123 1.13302739892455E-1
88 122 1.7336230057171778E-1
88 121 6.500471372313665E-2
88 120 4.1534378234646274E-1
88 119 1.7781674819332108E-1
88 118 2.0701072135257087E-1
88 117 1.86889852831531E-1
88 116 1.8500169802588115E-1
88 115 6.50184892853229E-2
88 114 4.1404754897039797E-1
88 113 1.51444641547908E-1
88 112 6.497357665782383E-2
88 111 3.969274180794659E-1
89 138 1.2250333266702301E-1
89 137 1.743640485485565E-1
89 136 8.698607487916805E-2
89 135 6.709734859919872E-2
89 134 3.97186674896654E-1
89 133 1.8690563987523764E-1
89 132 2.429716708592858E-1
89 131 1.8989307938824188E-1
89 130 2.68417587155774E-1
89 129 6.71274244200448E-2
89 128 4.6565290609558946E-1
89 127 1.7043683455946268E-1
89 126 1.5434969417259928E-1
89 125 6.71044628795928E-2
89 124 4.673220699894564E-1
90 148 1.9712614751720528E-1
90 147 2.054115942821952E-1
90 146 2.760984042362245E-1
90 145 2.1025832386773577E-1
90 144 6.941409779298909E-2
90 143 4.906305920288557E-1
90 142 1.8593399352420437E-1
90 141 1.7055208279003437E-1
90 140 6.939292942188417E-2
90 139 4.9523024496783E-1
91 160 1.3530973390615727E-2
91 159 4.149919288030549E-3
91 158 1.2173290339322225E-2
91 157 7.4752382561180135E-3
91 156 1.7868246715378705E-2
91 155 4.148318688517052E-3
91 154 4.149213710204568E-3
91 153 4.148284414632182E-3
91 152 4.1479966328051435E-3
91 151 4.148728704811655E-3
91 150 4.146250852589888E-3
91 149 4.147196784927306E-3
92 181 2.623512310742238E-3
92 180 4.774005985113708E-4
92 179 1.3612380007145277E-3
92 178 4.773910176548069E-4
92 177 2.205271501625987E-3
92 176 4.769352090507459E-4
92 175 4.771683028591098E-4
92 174 4.7718426361245155E-4
92 173 4.771853458557971E-4
93 194 1.9119790080863435E-2
93 193 4.4359461326111335E-3
93 192 1.2730249646327138E-2
93 191 4.436889394815625E-3
93 190 4.1836642509861015E-2
93 189 4.435155545731349E-3
93 188 4.434904874545065E-3
93 187 4.434552067100168E-3
93 186 4.4362220819199934E-3
93 185 4.436236691384663E-3
93 184 4.432667513460222E-3
93 183 4.433777473097007E-3
93 182 4.433778112204015E-3
94 208 4.6150039243913745E-3
94 207 8.178319781078563E-4
94 206 1.2117346252435417E-3
94 205 5.725487742328565E-4
94 204 1.9820231725893598E-3
94 203 6.89238268470918E-3
94 202 1.1513410109978827E-3
94 201 5.720769859391004E-4
94 200 1.0070447614897284E-2
95 80 7.686504534698785E-3
95 79 5.2938276259732846E-2
95 78 7.689682771327284E-3
95 77 1.2357038719484641E-2
95 76 3.5117761628359424E-2
95 75 2.1402362012787095E-2
95 74 5.7154955757006444E-2
95 73 7.693092079645653E-3
95 72 7.693128948934254E-3
95 71 2.908687973015667E-2
95 70 7.6895019850741824E-3
95 69 7.690188110970046E-3
95 68 7.689164173952557E-3
95 67 7.690595383685265E-3
96 94 7.4949955293627055E-3
96 93 5.1366905920265514E-2
96 92 7.4980824747482655E-3
96 91 1.2288875110860001E-2
96 90 3.3827492134342226E-2
96 89 2.1321873605770016E-2
96 88 5.629224337528807E-2
96 87 7.5014773711031164E-3
96 86 7.501466024871716E-3
96 85 2.8100038164839917E-2
96 84 7.497908724905908E-3
96 83 7.498602119252897E-3
96 82 7.497595788937026E-3
96 81 7.498988582440292E-3
97 123 4.640513067150431E-3
97 122 2.031005528379646E-2
97 121 6.395804183221381E-3
97 120 6.570039590649026E-3
97 119 2.151725795958183E-2
97 118 5.850111632434575E-3
97 117 4.833695952610411E-2
97 116 5.02922712453322E-2
97 115 8.956131244088091E-3
97 114 8.918579091427313E-3
97 113 5.6948256792324355E-2
97 112 3.4863501474597394E-2
97 111 3.260345776086773E-2
98 138 1.3574407455059015E-2
98 137 6.765546530334085E-2
98 136 1.3575300214279783E-2
98 135 2.3995879738238322E-2
98 134 2.3842550156392455E-2
98 133 4.668531969577101E-2
98 132 1.1452245801166243E-1
98 131 1.3585745900833944E-2
98 130 1.3590013309686117E-2
98 129 7.14328036282105E-2
98 128 7.08855424253859E-2
98 127 1.3580793677251886E-2
98 126 1.3579351181657744E-2
98 125 1.3584174389515917E-2
98 124 1.3584161397607965E-2
99 148 2.12353037440344E-2
99 147 2.9764856235909413E-2
99 146 5.1771541212668705E-3
99 145 5.175642886510617E-3
99 144 1.1623400686280025E-2
99 143 1.1546037724604732E-2
99 142 5.174037186134473E-3
99 141 5.173251869143607E-3
99 140 5.175073333049702E-3
99 139 5.175064756067516E-3
100 160 1.7869961896726012E-5
100 159 1.7869980536038474E-5
100 158 3.8461778345046284E-4
100 157 1.78703372768723E-5
100 156 1.786704248511064E-5
100 155 1.7863088189424728E-5
100 154 1.7866942245136453E-5
100 153 1.786294060254098E-5
100 152 1.786170138430784E-5
100 151 1.786485376188421E-5
100 150 1.785418387461631E-5
100 149 1.7858257156838166E-5
101 172 1.6851939375642734E-5
101 171 1.6851969473429593E-5
101 170 3.9210434446793323E-4
101 169 1.6852286770570554E-5
101 168 1.6849185021549108E-5
101 167 1.6845416077214355E-5
101 166 1.6849071508159587E-5
101 165 1.6845429487283478E-5
101 164 1.6844132462398628E-5
101 163 1.68471171673538E-5
101 162 1.6837019654917164E-5
101 161 1.6840885110834985E-5
102 194 3.4767773928239513E-4
102 193 3.476152131929222E-4
102 192 2.4665088404379073E-3
102 191 6.237042001432092E-4
102 190 6.289069943037856E-4
102 189 3.4755326022538194E-4
102 188 3.4753361681329886E-4
102 187 3.4750596967072594E-4
102 186 3.4763683748117145E-4
102 185 3.476379823264928E-4
102 184 3.4735828989830776E-4
102 183 3.474452699571818E-4
102 182 3.4744532003969233E-4
103 80 7.34042107435821E-3
103 79 1.540089465331077E-2
103 78 7.343456211464006E-3
103 77 8.242595128743726E-3
103 76 2.2313578383222777E-2
103 75 3.361368416300298E-2
103 74 5.590732342395117E-2
103 73 7.346712016299113E-3
103 72 7.34674722555474E-3
103 71 2.740730537325696E-2
103 70 7.343283565078873E-3
103 69 7.343938798281811E-3
103 68 7.342960963841193E-3
103 67 7.344327733617541E-3
104 94 7.607964356761447E-3
104 93 1.5370590245587819E-2
104 92 7.611097830340263E-3
104 91 8.569501029082103E-3
104 90 2.4858184937135736E-2
104 89 3.389702294112471E-2
104 88 5.6093243124164784E-2
104 87 7.614543896500199E-3
104 86 7.614532379251958E-3
104 85 2.843134486849588E-2
104 84 7.610921461641647E-3
104 83 7.611625307221862E-3
104 82 7.610603808924194E-3
104 81 7.612017595401806E-3
105 123 4.640995098859191E-3
105 122 6.927922197999118E-3
105 121 4.827098002777011E-3
105 120 4.8992116420799306E-3
105 119 7.536055681296287E-3
105 118 1.180793116456175E-2
105 117 4.901048131866756E-2
105 116 4.7364919690494674E-2
105 115 8.918379217595768E-3
105 114 8.970605861918963E-3
105 113 5.836979415370407E-2
105 112 3.0012689910922232E-2
105 111 3.4081631026425536E-2
106 138 4.410671492654083E-3
106 137 3.24372942045746E-2
106 136 4.4109615729141525E-3
106 135 9.62749636863308E-3
106 134 9.803370238806558E-3
106 133 1.5438871858651997E-2
106 132 2.4683211444448742E-2
106 131 4.414355643120029E-3
106 130 4.415742233189178E-3
106 129 9.757641068779485E-3
106 128 9.65232796776103E-3
106 127 4.4127465392640435E-3
106 126 4.412277835623283E-3
106 125 4.413845018977225E-3
106 124 4.41384079757469E-3
107 148 5.9901698050192284E-2
107 147 2.144150255423656E-1
107 146 1.7843083510576094E-2
107 145 1.783787503361592E-2
107 144 9.11597913494419E-2
107 143 9.171779363489421E-2
107 142 1.783234098049843E-2
107 141 1.7829634382177793E-2
107 140 1.7835912065211113E-2
107 139 1.783588250460584E-2
108 160 3.856914280863058E-6
108 159 3.856918303828011E-6
108 158 5.303351040652529E-5
108 157 3.856995300008781E-6
108 156 3.856284177653207E-6
108 155 3.855430713074497E-6
108 154 3.856262542632931E-6
108 153 3.855398859063678E-6
108 152 3.855131395790497E-6
108 151 3.855811780570456E-6
108 150 3.853508874676387E-6
108 149 3.8543880203881826E-6
109 172 4.7435484750418716E-6
109 171 4.743556947082256E-6
109 170 9.781081815972755E-5
109 169 4.743646261097432E-6
109 168 4.74277316889643E-6
109 167 4.741712272001828E-6
109 166 4.7427412167125435E-6
109 165 4.741716046719475E-6
109 164 4.74135095518446E-6
109 163 4.742191101373155E-6
109 162 4.7393488148770526E-6
109 161 4.740436878221906E-6
110 194 8.156478118338772E-5
110 193 8.155011263769182E-5
110 192 5.348960512868235E-4
110 191 1.355848647318831E-4
110 190 1.4899971284639243E-4
110 189 8.153557854571482E-5
110 188 8.153097022476923E-5
110 187 8.152448423823768E-5
110 186 8.155518566981327E-5
110 185 8.155545424915436E-5
110 184 8.148983874052084E-5
110 183 8.151024415814701E-5
110 182 8.1510255907444E-5
111 12 5.508012198976589E-4
111 11 5.508147438105086E-4
111 10 5.510412937885634E-4
111 9 5.510208292855247E-4
111 8 5.508190791808376E-4
111 7 5.510155226556109E-4
111 6 5.511762544875721E-4
111 5 5.511763082869657E-4
111 4 5.511888172131531E-4
111 3 5.51187872437926E-4
111 2 1.4293706412976117E-2
111 1 5.510862089764937E-4
112 24 5.453338525876841E-4
112 23 5.453478088331906E-4
112 22 5.45572526309183E-4
112 21 5.455518824916254E-4
112 20 5.453510688650895E-4
112 19 5.455461630067895E-4
112 18 5.457052838649091E-4
112 17 5.457053490922758E-4
112 16 5.457171599940641E-4
112 15 5.457166356611466E-4
112 14 1.4152839640582962E-2
112 13 5.456160914535694E-4
113 38 1.7687907278083812E-2
113 37 2.4645617223439816E-3
113 36 2.464567473673842E-3
113 35 2.465277525941608E-3
113 34 3.045045675552274E-3
113 33 1.2926481876292756E-1
113 32 2.122971114656497E-2
113 31 2.043770579835875E-2
113 30 2.46671397154609E-3
113 29 2.4983688229257106E-3
113 28 1.73647002848522E-2
113 27 1.3443592475444887E-2
113 26 3.795823500419847E-3
113 25 3.7848398752892824E-3
114 80 1.761722007660453E-1
114 79 3.344468919219608E-2
114 78 6.559132065449258E-1
114 77 2.1944580236148564E-1
114 76 1.1639474284220457E-1
114 75 1.253093301489011E-1
114 74 3.3450365006725886E-2
114 73 2.538471877058612E-1
114 72 2.4591664956755613E-1
114 71 1.1972662112843699E-1
114 70 3.3434408571196755E-2
114 69 3.343739188709655E-2
114 68 3.3805978537065673E-1
114 67 1.5500746333986898E-1
115 94 1.6490018716081464E-1
115 93 3.234666635552589E-2
115 92 6.415769130700194E-1
115 91 2.059899253573153E-1
115 90 1.1307016559975228E-1
115 89 1.2103446027573794E-1
115 88 3.2352209982278925E-2
115 87 2.4004049379657919E-1
115 86 2.409241008241322E-1
115 85 1.158204169975251E-1
115 84 3.233676732989359E-2
115 83 3.233975778129665E-2
115 82 3.287258069756751E-1
115 81 1.5031802036281566E-1
116 102 1.856354346320849E-2
116 101 1.856433830056025E-2
116 100 1.8564355639747433E-2
116 99 1.8570467710692703E-2
116 98 5.315460902313847E-2
116 97 1.082971139263151E-1
116 96 3.2899173859488214E-2
116 95 3.260848104508108E-2
117 110 3.541457806330279E-1
117 109 7.738642109374727E-2
117 108 3.8840389505642836E-1
117 107 5.1813370351960014E-2
117 106 1.8548883025401638E-2
117 105 1.0667858371957183E-1
117 104 3.258463811005209E-2
117 103 3.2553429612155224E-2
118 138 2.0607919360858218E-1
118 137 3.23249577210292E-2
118 136 6.451564210033213E-1
118 135 1.1898931506278798E-1
118 134 1.1305782736106858E-1
118 133 1.2515683027149563E-1
118 132 3.233827169874537E-2
118 131 2.672144611860568E-1
118 130 2.1045571773984584E-1
118 129 1.2072333073428186E-1
118 128 1.213961469017047E-1
118 127 3.23197881995284E-2
118 126 4.2576215050477373E-1
118 125 1.7737876065415561E-1
118 124 1.7629987447868567E-1
119 148 3.653185438806332E-2
119 147 1.6055606276680092E-2
119 146 1.792962337210642E-1
119 145 1.7279686173909453E-1
119 144 5.551289547098258E-2
119 143 5.4544834744280936E-2
119 142 3.3824674483867E-2
119 141 4.0446804370575257E-1
119 140 1.3241987713318085E-1
119 139 1.322157746988999E-1
120 160 2.261631080751342E-2
120 159 3.339699285711586E-3
120 158 3.339765488136756E-3
120 157 3.2178757153129886E-2
120 156 1.1481766156240143E-2
120 155 3.3384111832977987E-3
120 154 3.3391314631594123E-3
120 153 3.3383836009616436E-3
120 152 3.3381520049484458E-3
120 151 3.3387411490227144E-3
120 150 3.3367470665548933E-3
120 149 3.337508317396739E-3
121 172 2.3858551260308534E-2
121 171 3.5106805171665496E-3
121 170 3.510747075064413E-3
121 169 3.416003279861025E-2
121 168 1.1977363604296562E-2
121 167 3.5093152832423855E-3
121 166 3.510076799587493E-3
121 165 3.5093180768902424E-3
121 164 3.5090478746447E-3
121 163 3.509669662237666E-3
121 162 3.5075661015684496E-3
121 161 3.508371371290903E-3
122 181 2.6971120220386845E-2
122 180 4.644377451150397E-3
122 179 2.1522389509452E-2
122 178 9.531859001625564E-3
122 177 9.528158206598206E-3
122 176 4.639849923695113E-3
122 175 4.642117569841649E-3
122 174 4.642272843553402E-3
122 173 4.642283372125436E-3
123 208 1.9117762521478152E-2
123 207 1.5360372091685435E-3
123 206 6.268696835394468E-3
123 205 2.5072723693203474E-3
123 204 2.488567311643096E-3
123 203 9.702827101878891E-3
123 202 1.534773452198375E-3
123 201 4.708802559996717E-3
123 200 7.939354946325772E-3
124 12 2.512893268628948E-3
124 11 2.5129549681102456E-3
124 10 2.513988545913446E-3
124 9 2.5138951817194792E-3
124 8 2.5129747471567022E-3
124 7 2.513870971543271E-3
124 6 3.048657942788282E-2
124 5 2.514604515907604E-3
124 4 2.5146615847652584E-3
124 3 2.5146572744637868E-3
124 2 2.563063620911024E-2
124 1 5.815240103146943E-3
125 24 2.5319478922408087E-3
125 23 2.532012690137045E-3
125 22 2.5330560380550015E-3
125 21 2.532960190217746E-3
125 20 2.532027826242856E-3
125 19 2.532933635039654E-3
125 18 3.1032614964004914E-2
125 17 2.533672725179957E-3
125 16 2.5337275623915963E-3
125 15 2.5337251279496137E-3
125 14 2.5642476328308454E-2
125 13 5.899195177632977E-3
126 38 3.2580977336976523E-3
126 37 3.258246031622864E-3
126 36 3.2582536351036468E-3
126 35 3.259192351696832E-3
126 34 3.259058946844948E-3
126 33 5.753594452133483E-3
126 32 3.2595764898747073E-3
126 31 3.416146062694059E-3
126 30 2.036720295466799E-2
126 29 3.2610940557794743E-3
126 28 3.2602502037552047E-3
126 27 2.4528114615474213E-2
126 26 5.150576432542976E-3
126 25 5.157299236530471E-3
127 66 3.7025580744342954E-3
127 65 3.702907259057673E-3
127 64 3.702914406794072E-3
127 63 1.896361900971038E-2
127 62 3.702590619673379E-3
127 61 3.704720173173765E-3
127 60 1.8519187532042757E-2
127 59 6.408708213096243E-3
127 58 6.431107183977676E-3
128 80 6.013926939924032E-1
128 79 5.504335057377054E-1
128 78 1.0872927636509688E-1
128 77 4.1111031881249394E-1
128 76 4.7676309044609755E-1
128 75 6.85235645559353E-2
128 74 2.4928689942857818E-1
128 73 2.9677416085143543E-1
128 72 1.8363241648081902E-1
128 71 1.9111079723052596E-1
128 70 7.397879853937172E-1
128 69 6.849578696942106E-2
128 68 2.527155817991211E-1
128 67 2.4668389688379444E-1
129 94 5.919460054276313E-1
129 93 5.417450557320157E-1
129 92 1.0591607705112074E-1
129 91 4.0758190402872696E-1
129 90 4.6508494317437543E-1
129 89 6.708042938291031E-2
129 88 2.4362720888161737E-1
129 87 2.845610616595493E-1
129 86 1.831591385478506E-1
129 85 1.8692317036190903E-1
129 84 7.235241233472797E-1
129 83 6.705331818837758E-2
129 82 2.4852579173043102E-1
129 81 2.4194237861015666E-1
130 102 6.89253482322578E-1
130 101 6.155807412463071E-1
130 100 6.365776373470045E-1
130 99 6.872988018441814E-1
130 98 1.0543511696377818E-1
130 97 4.8813708547244616E-1
130 96 4.49692598988136E-1
130 95 4.503117893846662E-1
131 110 3.536895751858849E-2
131 109 3.537038147409668E-2
131 108 3.5370144899688864E-2
131 107 2.4966271916349997E-1
131 106 3.5378195929525694E-2
131 105 3.5368471457334336E-2
131 104 5.701314942410188E-2
131 103 5.951707297300041E-2
132 123 6.181051407026731E-1
132 122 4.587255362136725E-1
132 121 3.575584935410651E-1
132 120 3.6082104307770224E-1
132 119 4.488904646601951E-1
132 118 6.497538133662549E-2
132 117 2.636360704082668E-1
132 116 9.765769209441783E-2
132 115 2.0677019371709518E-1
132 114 2.0656611709485345E-1
132 113 1.968056260442131E-1
132 112 1.705728917612656E-1
132 111 1.6650112747365498E-1
133 148 3.508276632388377E-1
133 147 1.2519003694646655E-1
133 146 1.554626674341987E-1
133 145 2.96215369680324E-1
133 144 1.6058826047741764E-1
133 143 1.5960972551888902E-1
133 142 4.866821262801913E-1
133 141 1.4519849588075984E-1
133 140 1.8984987659450892E-1
133 139 1.9177676344762165E-1
134 160 3.3549333315442756E-2
134 159 1.7911523020560538E-3
134 158 1.5394628627378986E-2
134 157 2.737828715390805E-3
134 156 4.770100513134834E-3
134 155 1.7904614651254327E-3
134 154 1.7908477666519723E-3
134 153 1.7904466721274188E-3
134 152 1.7903224622220655E-3
134 151 1.7906384328154011E-3
134 150 1.789568963651513E-3
134 149 1.7899772387928252E-3
135 172 3.576930626261878E-2
135 171 1.874072589503227E-3
135 170 1.5870024087102818E-2
135 169 2.889615648842683E-3
135 168 5.102472332994941E-3
135 167 1.8733437998959058E-3
135 166 1.8737503127932902E-3
135 165 1.8733452912018927E-3
135 164 1.8732010517532966E-3
135 163 1.8735329746038018E-3
135 162 1.872410051178768E-3
135 161 1.8728399205179538E-3
136 181 2.2756627986489065E-3
136 180 9.099403652078676E-5
136 179 9.09663498521951E-5
136 178 1.3879068778611709E-4
136 177 1.3591921852049488E-4
136 176 9.090533184444463E-5
136 175 9.094976024813154E-5
136 174 9.095280241728048E-5
136 173 9.095300869622277E-5
137 194 8.58694806962567E-2
137 193 6.28704260225873E-3
137 192 2.574242456100345E-2
137 191 2.4128007950365363E-2
137 190 2.455094533613423E-2
137 189 6.285922107724891E-3
137 188 6.285566832800397E-3
137 187 6.285066800705743E-3
137 186 6.2874337037304336E-3
137 185 6.287454409646158E-3
137 184 6.28239583296484E-3
137 183 6.283968972789952E-3
137 182 6.283969878592878E-3
138 208 3.9498106704352644E-2
138 207 4.428397023644945E-3
138 206 5.196595382572901E-3
138 205 4.536341546450206E-3
138 204 4.524461904890414E-3
138 203 8.58966105050924E-2
138 202 1.0839220016146706E-2
138 201 3.6016502024117034E-2
138 200 3.1500488568791986E-2
139 12 2.267008378229974E-3
139 11 2.267064040459158E-3
139 10 2.2679964833800964E-3
139 9 2.2679122548087557E-3
139 8 2.267081884139425E-3
139 7 2.2678904135817572E-3
139 6 2.268551959701375E-3
139 5 3.5956281223176845E-2
139 4 2.2686036658398456E-3
139 3 2.2685997772984297E-3
139 2 1.810293695865516E-2
139 1 4.493855352046028E-3
140 24 2.3047837143109436E-3
140 23 2.3048426985958982E-3
140 22 2.3057924382398442E-3
140 21 2.305705189787759E-3
140 20 2.3048564767033696E-3
140 19 2.305681017117309E-3
140 18 2.306353521053495E-3
140 17 3.692971912130528E-2
140 16 2.306403713992987E-3
140 15 2.306401497967036E-3
140 14 1.7973897208134127E-2
140 13 4.639653011705237E-3
141 38 2.3101250310695407E-3
141 37 2.310230180385825E-3
141 36 2.3102355715658067E-3
141 35 2.3109011601626646E-3
141 34 2.746589911315553E-3
141 33 2.3102241993799883E-3
141 32 2.311173529898821E-3
141 31 2.3111729178356007E-3
141 30 2.3122476551430383E-3
141 29 1.7774284190777312E-2
141 28 1.5665515899465514E-2
141 27 2.311664964777421E-3
141 26 3.456002027057368E-3
141 25 3.4637176748078045E-3
142 57 5.623964529477777E-3
142 56 5.6245285042384454E-3
142 55 5.624521086296151E-3
142 54 2.496030104799458E-2
142 53 5.626900422021165E-3
142 52 5.623935587282414E-3
142 51 2.938954462187638E-2
142 50 1.0292023830190428E-2
142 49 1.0245160979343144E-2
143 80 5.286800942490578E-2
143 79 5.290488850416805E-2
143 78 5.288986943204837E-2
143 77 5.289643403467652E-2
143 76 5.291476536824474E-2
143 75 3.6809677871267715E-1
143 74 1.7933115521998108E-1
143 73 1.530112971173879E-1
143 72 2.3387168751188817E-1
143 71 1.4738087531650854E-1
143 70 5.288862597876089E-2
143 69 7.183801578498121E-1
143 68 1.729475243635919E-1
143 67 2.0035619938318291E-1
144 94 5.210659828822209E-2
144 93 5.214280858760561E-2
144 92 5.2128059304778124E-2
144 91 5.2134659411269E-2
144 90 5.215278788002161E-2
144 89 3.6144087086906795E-1
144 88 1.7767544964185986E-1
144 87 1.6325133564963656E-1
144 86 2.274384302036074E-1
144 85 1.4550258723217227E-1
144 84 5.2126851363665565E-2
144 83 7.029035894117026E-1
144 82 1.6936481191115985E-1
144 81 1.9607882825582937E-1
145 102 3.1073256705930235E-2
145 101 3.1074587173096684E-2
145 100 3.1074616196920472E-2
145 99 3.108484710729939E-2
145 98 2.316085872833503E-1
145 97 3.1075306401627922E-2
145 96 5.248540388629543E-2
145 95 5.117767222011546E-2
146 110 1.0446305509656982E-1
146 109 1.0446726078294405E-1
146 108 1.0446656205481827E-1
146 107 1.0452421777738838E-1
146 106 6.832704489266147E-1
146 105 4.6919264766784E-1
146 104 4.509926692359842E-1
146 103 4.4792387105688847E-1
147 123 2.41566201738272E-2
147 122 2.416602075885745E-2
147 121 2.417268726324855E-2
147 120 2.4172714498731502E-2
147 119 2.4173553138947493E-2
147 118 1.1296091939076662E-1
147 117 4.326565429925314E-2
147 116 1.3216591161774466E-1
147 115 5.017071943146118E-2
147 114 5.030423328023461E-2
147 113 9.630505402138918E-2
147 112 7.410897324758563E-2
147 111 7.593888425952439E-2
148 138 1.2640332173583466E-1
148 137 3.063457289936382E-1
148 136 6.208752645999394E-2
148 135 1.7177295178554983E-1
148 134 1.7125664052330786E-1
148 133 2.4979601047416736E-1
148 132 1.489585534803084E-1
148 131 1.8200940806855756E-1
148 130 1.1690163948065248E-1
148 129 1.186317888807085E-1
148 128 1.1837994861043982E-1
148 127 4.839434974401932E-1
148 126 9.050480309525274E-2
148 125 1.4263806598727324E-1
148 124 1.4176428112224007E-1
149 24 1.8264463741154357E-5
149 23 1.8264931167371908E-5
149 22 1.8272457463736587E-5
149 21 1.8271766055610224E-5
149 20 1.8265040353211243E-5
149 19 1.8271574497131123E-5
149 18 1.8276903814447105E-5
149 17 1.8276905999059096E-5
149 16 1.827730157286483E-5
149 15 1.8277284011769887E-5
149 14 2.37066828918372E-4
149 13 1.8273916558924328E-5
150 38 1.3758686316201264E-5
150 37 1.3759312566486275E-5
150 36 1.3759344675377891E-5
150 35 1.3763308800521182E-5
150 34 1.3762745442494458E-5
150 33 1.3759276944698685E-5
150 32 1.3764930985342958E-5
150 31 1.376492734000526E-5
150 30 1.377132828077101E-5
150 29 3.043876568595284E-5
150 28 1.0702381909724693E-4
150 27 1.3767857882479933E-5
150 26 4.6171116770301574E-5
150 25 1.3771793310996358E-5
151 94 7.886555030772435E-3
151 93 7.89203561342704E-3
151 92 7.889803246807365E-3
151 91 7.89080220096594E-3
151 90 7.893546021732176E-3
151 89 3.4346329646309334E-2
151 88 3.461257370928529E-2
151 87 8.47759507927018E-3
151 86 1.1077662449962562E-2
151 85 2.3535782139415845E-2
151 84 7.889620419787928E-3
151 83 7.890350038992385E-3
151 82 8.912035688557664E-3
151 81 1.087677125044478E-2
152 102 2.743723737373084E-4
152 101 2.7438412157044004E-4
152 100 2.743843778466168E-4
152 99 2.7447471530923695E-4
152 98 1.0811649512853245E-3
152 97 2.7439047225460696E-4
152 96 5.75569174587946E-4
152 95 2.7452165672282874E-4
153 110 5.337693240938616E-5
153 109 5.337908136661439E-5
153 108 5.3378724341215246E-5
153 107 5.340818437953974E-5
153 106 5.3390874523340356E-5
153 105 5.793160894008438E-4
153 104 1.353765500171965E-4
153 103 5.34014697078072E-5
154 123 1.2903177027914662E-2
154 122 1.2908198318639043E-2
154 121 1.2911759209429923E-2
154 120 1.29117737571711E-2
154 119 1.2912221714008264E-2
154 118 9.318653762374267E-2
154 117 1.4574380536783445E-2
154 116 2.7354049979615606E-2
154 115 1.0959818068703524E-1
154 114 1.2914516334847526E-2
154 113 1.994825765033999E-2
154 112 3.7606091005778476E-2
154 111 1.2905587396677059E-2
155 138 4.420243008970108E-2
155 137 1.121777748984319E-2
155 136 3.438351829311598E-3
155 135 6.404335501617775E-2
155 134 3.4402428671773287E-3
155 133 9.439376111441994E-3
155 132 7.59748323124108E-3
155 131 6.759657857863726E-3
155 130 4.406577148042913E-3
155 129 1.196622902741056E-2
155 128 3.4417764092023193E-3
155 127 4.68208235141654E-3
155 126 5.4473520304120235E-3
155 125 7.791909198307648E-3
155 124 3.440596189688562E-3
156 172 2.3080296603595474E-1
156 171 2.2863737682264113E-1
156 170 2.031394166362539E-1
156 169 2.0278036868035637E-1
156 168 3.671599332920864E-1
156 167 1.5381315034075826E-1
156 166 2.0164845767394252E-1
156 165 1.0179722370672997E-1
156 164 1.0178938576276682E-1
156 163 3.810110802457694E-1
156 162 1.017464029433071E-1
156 161 1.0176976196072439E-1
157 181 2.638471045717415E-1
157 180 2.724202614898122E-1
157 179 1.9925792071439866E-1
157 178 5.082995458040376E-1
157 177 7.600259927236698E-2
157 176 1.0765399633934716E-1
157 175 1.9490226698099367E-1
157 174 4.5131072656497395E-1
157 173 7.596983139328177E-2
158 194 2.6239230016232773E-1
158 193 2.179826110544239E-1
158 192 1.9872824390544389E-1
158 191 5.090022403949026E-1
158 190 7.600192969440225E-2
158 189 2.2632104557505386E-1
158 188 2.0571634081913392E-1
158 187 2.0317814953663407E-1
158 186 5.82505022620373E-1
158 185 7.59907456335074E-2
158 184 1.7222027853466335E-1
158 183 4.1015613405750095E-1
158 182 7.594863127439322E-2
159 199 1.963815198592361E-1
159 198 1.65788020990215E-1
159 197 2.5736532828522773E-1
159 196 4.693882918711637E-1
159 195 7.388230386745556E-2
160 208 1.8791622721552012E-1
160 207 2.2737718002946355E-1
160 206 2.267328316235579E-1
160 205 4.509811901174871E-1
160 204 7.229040435638842E-2
160 203 1.7871974733642618E-1
160 202 1.600786739862226E-1
160 201 4.4027282851057736E-1
160 200 7.223088862873983E-2
161 12 1.709368906416532E-5
161 11 1.7094108768321433E-5
161 10 1.7101139571345222E-5
161 9 1.71005044713506E-5
161 8 1.709424331318028E-5
161 7 1.7100339784203136E-5
161 6 1.7105327972062936E-5
161 5 1.710532964168543E-5
161 4 1.7105717846516956E-5
161 3 1.7105688526149855E-5
161 2 2.2859964154840496E-4
161 1 1.710253347939953E-5
162 38 1.2923891467495424E-5
162 37 1.2924479720656298E-5
162 36 1.2924509881372289E-5
162 35 1.2928233487095833E-5
162 34 1.2927704310266928E-5
162 33 1.2924446260185864E-5
162 32 1.2929757247438575E-5
162 31 1.7820987304875027E-4
162 30 1.2935766393217288E-5
162 29 3.80426464424196E-5
162 28 1.0658285418367983E-4
162 27 1.2932506557951615E-5
162 26 1.2936199106313576E-5
162 25 2.918274253978601E-5
163 80 8.25472302432227E-3
163 79 8.260481262395042E-3
163 78 8.258136209464565E-3
163 77 8.259161195596058E-3
163 76 8.262023419517824E-3
163 75 3.536605125559197E-2
163 74 3.71173629318384E-2
163 73 8.808104002685573E-3
163 72 1.1651039819370025E-2
163 71 2.450945599849174E-2
163 70 8.257942058737245E-3
163 69 8.258678905922414E-3
163 68 9.114834674734085E-3
163 67 1.123825797215401E-2
164 102 2.3290652378235482E-4
164 101 2.3291649616747286E-4
164 100 2.3291671371267482E-4
164 99 2.329933984900071E-4
164 98 9.324564796704936E-4
164 97 2.329218870738269E-4
164 96 2.3303343907414152E-4
164 95 5.761922801991142E-4
165 110 8.167761633030526E-5
165 109 8.168090467409112E-5
165 108 8.16803583522578E-5
165 107 8.172543823224957E-5
165 106 8.169895061429239E-5
165 105 3.456482294000959E-4
165 104 8.171574645547572E-5
165 103 5.360198191593187E-4
166 123 1.2867763180137652E-2
166 122 1.287277068950997E-2
166 121 1.2876321807138463E-2
166 120 1.2876336314952148E-2
166 119 1.2876783042334332E-2
166 118 9.337216796170415E-2
166 117 1.5095454699570646E-2
166 116 2.7603929593599343E-2
166 115 1.2879050510360505E-2
166 114 1.0921304108087233E-1
166 113 1.9916436646014418E-2
166 112 1.2870154087135793E-2
166 111 3.674778956194371E-2
167 138 4.5685677821777196E-2
167 137 1.1224282526575053E-2
167 136 3.4461139580328143E-3
167 135 3.4480010941937487E-3
167 134 6.345338510476407E-2
167 133 9.492447006272805E-3
167 132 7.898898391435E-3
167 131 6.8674368402588575E-3
167 130 4.383577209020922E-3
167 129 3.4495466316158837E-3
167 128 1.1895687430759467E-2
167 127 4.4412185918965815E-3
167 126 5.5981942538409725E-3
167 125 3.448366683104419E-3
167 124 8.143872575399254E-3
168 160 2.1802118962053912E-1
168 159 2.1656265513603765E-1
168 158 1.9148272696701718E-1
168 157 1.9170822788747358E-1
168 156 3.467942175927933E-1
168 155 1.4412498426370915E-1
168 154 1.9176540918544688E-1
168 153 9.613162309079676E-2
168 152 9.612495408468144E-2
168 151 3.5530684769670234E-1
168 150 9.60844976769529E-2
168 149 9.610641854877386E-2
169 181 2.612667269094851E-1
169 180 2.712145416450996E-1
169 179 1.9861878857661955E-1
169 178 7.587255894427519E-2
169 177 5.090346670411506E-1
169 176 1.0938681857443572E-1
169 175 1.9579258213782944E-1
169 174 7.583969917589783E-2
169 173 4.4937712000644164E-1
170 194 2.626899648113419E-1
170 193 2.1792338550723217E-1
170 192 1.9873272692101648E-1
170 191 7.587256882256195E-2
170 190 5.068064820471281E-1
170 189 2.2436404506471283E-1
170 188 1.8301931031825056E-1
170 187 1.8640086352494248E-1
170 186 7.586115750731501E-2
170 185 5.816211179147192E-1
170 184 1.5952921166989245E-1
170 183 7.581935372663412E-2
170 182 4.31843325612471E-1
171 199 1.9945663995910076E-1
171 198 1.6589960112837315E-1
171 197 2.576790685267796E-1
171 196 7.394353455199927E-2
171 195 4.703824819896368E-1
172 208 1.88459298470405E-1
172 207 2.2796954191347657E-1
172 206 2.273513474458354E-1
172 205 7.232825803548158E-2
172 204 4.508143879175119E-1
172 203 1.798173166943758E-1
172 202 1.6186908339884917E-1
172 201 7.226865852713465E-2
172 200 4.1796349361922763E-1
173 80 6.943094425861018E-4
173 79 6.947937712613104E-4
173 78 6.945965275272449E-4
173 77 6.946827396929975E-4
173 76 6.949234829729141E-4
173 75 1.3681705918514057E-3
173 74 2.33440648448061E-2
173 73 6.949044847979972E-4
173 72 6.94907815140821E-4
173 71 6.94786320790175E-4
173 70 6.945801973992847E-4
173 69 6.946421740345876E-4
173 68 6.945496834705547E-4
173 67 6.946789623159979E-4
174 94 6.288185083572651E-4
174 93 6.292554915262597E-4
174 92 6.290774982906311E-4
174 91 6.291571478792616E-4
174 90 6.29375920876431E-4
174 89 1.1954190992254242E-3
174 88 2.1059401556730636E-2
174 87 6.293623248330248E-4
174 86 6.29361372901796E-4
174 85 6.292508160966095E-4
174 84 6.290629209481537E-4
174 83 6.291210956591683E-4
174 82 6.290366661053866E-4
174 81 6.291535193216083E-4
175 123 1.272507766559205E-2
175 122 1.2730029648682032E-2
175 121 1.2733541389377724E-2
175 120 1.2733555736320025E-2
175 119 1.2733997510119718E-2
175 118 6.785859189371166E-2
175 117 2.2726820998272876E-2
175 116 7.468065429885254E-2
175 115 2.7953768359939297E-2
175 114 2.7991886198571184E-2
175 113 5.7347876512283485E-2
175 112 4.2368249552711484E-2
175 111 4.0102713806277314E-2
176 138 1.243406660700282E-4
176 137 1.2441906097500178E-4
176 136 1.243488436848904E-4
176 135 1.2441693870506268E-4
176 134 1.244172335366686E-4
176 133 1.2444844113675626E-4
176 132 1.1931258386551973E-3
176 131 1.2444452547637953E-4
176 130 1.244836146565761E-4
176 129 1.3740283052771435E-4
176 128 1.374119928591031E-4
176 127 1.2439916343897497E-4
176 126 1.2438595027563267E-4
176 125 1.2443013053761942E-4
176 124 1.244300115326099E-4
177 160 2.1005841778772433E-1
177 159 1.9374451784349386E-1
177 158 3.9769437564601656E-1
177 157 5.3819296887271065E-2
177 156 1.5923688893180563E-1
177 155 7.075555082115412E-2
177 154 4.337154101983492E-1
177 153 5.379702065344022E-2
177 152 5.379328855521709E-2
177 151 1.2267237531829657E-1
177 150 5.3770648406927066E-2
177 149 5.378291572912738E-2
178 172 2.2118490396142787E-1
178 171 2.067432863315352E-1
178 170 4.213253308308886E-1
178 169 5.693634213520606E-2
178 168 1.6820374358160128E-1
178 167 7.544373316995345E-2
178 166 4.6124289746496083E-1
178 165 5.691317444095387E-2
178 164 5.6908792373783566E-2
178 163 1.3042333228746208E-1
178 162 5.688476137752651E-2
178 161 5.6897821024780436E-2
179 194 1.498153780362737E-1
179 193 2.0110398973403626E-1
179 192 2.88625707631724E-1
179 191 1.151823350540543E-1
179 190 1.1532237509928141E-1
179 189 1.3218811545574152E-1
179 188 4.238960382141723E-1
179 187 4.576089730076054E-1
179 186 1.1066837919965898E-1
179 185 1.1288972090791752E-1
179 184 5.122602139788118E-1
179 183 3.5301114940304934E-1
179 182 3.4945127106142554E-1
180 199 2.519507064564942E-1
180 198 5.164197067546689E-1
180 197 7.063015115979633E-2
180 196 2.453286140610952E-1
180 195 2.4474095072408916E-1
181 208 1.3140261427280803E-1
181 207 3.6027069099740483E-1
181 206 5.5429968372379E-2
181 205 1.7477850568865586E-1
181 204 1.7498997432256164E-1
181 203 1.622077535423489E-1
181 202 3.985021488814643E-1
181 201 1.695791413284083E-1
181 200 1.753967159650996E-1
182 12 7.955809290038739E-5
182 11 7.95600463033139E-5
182 10 7.959276933214818E-5
182 9 7.958981342577926E-5
182 8 7.956067250707479E-5
182 7 7.958904693264087E-5
182 6 7.961226314487363E-5
182 5 7.961227091569367E-5
182 4 7.961407771327465E-5
182 3 7.961394124931528E-5
182 2 2.0606174506439304E-3
182 1 7.959925691163224E-5
183 24 7.82084699396562E-5
183 23 7.821047145964617E-5
183 22 7.824269907559678E-5
183 21 7.823973846462934E-5
183 20 7.821093899362661E-5
183 19 7.823891821084216E-5
183 18 7.826173835815186E-5
183 17 7.826174771266475E-5
183 16 7.826344156048492E-5
183 15 7.826336636384157E-5
183 14 2.121418578881053E-3
183 13 7.824894692408262E-5
184 38 3.53521835466144E-4
184 37 3.5353792662086116E-4
184 36 3.535387516410729E-4
184 35 3.536406076442165E-4
184 34 1.078727637724535E-3
184 33 1.0330726552540013E-3
184 32 6.665324213175828E-4
184 31 1.4480386690501157E-3
184 30 3.538466637539531E-4
184 29 1.082128475366537E-3
184 28 5.425126536366589E-3
184 27 3.537574937892149E-4
184 26 5.292803863473507E-4
184 25 5.505616153100746E-4
185 80 6.2867704784749495E-3
185 79 6.291155934051988E-3
185 78 6.2893699492902536E-3
185 77 6.29015057542796E-3
185 76 6.292330435951581E-3
185 75 6.172676620805956E-2
185 74 6.29222359038614E-3
185 73 1.4626519927073499E-2
185 72 4.8649580603371614E-2
185 71 1.8803040030279293E-2
185 70 6.289222084721414E-3
185 69 6.289783265165289E-3
185 68 4.717077794886622E-2
185 67 2.2031213975779604E-2
186 94 6.061253713149847E-3
186 93 6.0654658440277565E-3
186 92 6.063750146817782E-3
186 91 6.0645178983365754E-3
186 90 6.066626676344549E-3
186 89 6.017136346478732E-2
186 88 6.066505353891092E-3
186 87 1.3740043068584768E-2
186 86 4.715947096030612E-2
186 85 1.7780025841670016E-2
186 84 6.0636096341419535E-3
186 83 6.064170386852732E-3
186 82 4.612607941476406E-2
186 81 2.097123958886316E-2
187 102 3.8387627755360415E-3
187 101 3.838927140278397E-3
187 100 3.838930725856035E-3
187 99 3.8401946435166175E-3
187 98 1.5677565788947342E-2
187 97 3.8390159931379147E-3
187 96 5.060950087940716E-3
187 95 5.111235449598722E-3
188 110 8.523378879158478E-4
188 109 8.52372203070025E-4
188 108 8.523665019879113E-4
188 107 8.528369281759664E-4
188 106 8.525605195176353E-4
188 105 1.6859091735958648E-2
188 104 2.011066647634545E-3
188 103 1.836594256381101E-3
189 138 1.0806963766001168E-1
189 137 8.691836102420986E-3
189 136 8.686930767398994E-3
189 135 2.958009591454937E-2
189 134 3.028464713305789E-2
189 133 4.553203696796059E-2
189 132 8.695416088918695E-3
189 131 5.518602032057225E-2
189 130 2.2223704689140512E-2
189 129 1.63216338837238E-2
189 128 1.630956123114026E-2
189 127 2.708939678197529E-2
189 126 5.9783682342900456E-2
189 125 2.9951487482414763E-2
189 124 3.0908043856327054E-2
190 160 2.097586050116894E-1
190 159 2.3017229763836683E-1
190 158 5.377494878547562E-2
190 157 3.96588409334334E-1
190 156 1.5881946715020043E-1
190 155 3.003259150515318E-1
190 154 5.376474008644975E-2
190 153 6.685910283715645E-1
190 152 6.390852851147465E-1
190 151 2.2216501035782504E-1
190 150 6.192648939612455E-1
190 149 6.52149406581554E-1
191 172 2.2312565386300154E-1
191 171 2.4327732380139575E-1
191 170 5.6979188735402996E-2
191 169 4.196559544537469E-1
191 168 1.6848576120161776E-1
191 167 3.1232670492029574E-1
191 166 5.696831020952587E-2
191 165 7.046352667999004E-1
191 164 6.815512315342582E-1
191 163 2.2841154062492777E-1
191 162 6.524195205245618E-1
191 161 6.943317736248528E-1
192 181 1.4979608466542976E-1
192 180 1.393200899058166E-1
192 179 2.8862805214063E-1
192 178 1.1532291156628686E-1
192 177 1.1519683042904251E-1
192 176 6.250510331121682E-2
192 175 2.4036368872246983E-1
192 174 1.4779212494207788E-1
192 173 1.3466072002023216E-1
193 199 4.503141283065267E-2
193 198 3.705518878795362E-2
193 197 2.8055559049264395E-1
193 196 8.478808181466711E-2
193 195 8.453585178654442E-2
194 208 2.0886681633879722E-1
194 207 5.5567615297433495E-2
194 206 3.6014822342010167E-1
194 205 1.7526579984620771E-1
194 204 1.7540076861688178E-1
194 203 1.335911175808412E-1
194 202 5.552189768022436E-2
194 201 9.992839232622651E-2
194 200 1.0192398025978402E-1
195 160 1.1676979541376702E-1
195 159 1.6256991064018927E-2
195 158 7.173624533768869E-2
195 157 6.087678126828842E-2
195 156 5.8131275709969565E-2
195 155 1.62507208379779E-2
195 154 1.625422701690962E-2
195 153 1.625058657265817E-2
195 152 1.6249459209385333E-2
195 151 1.625232704541829E-2
195 150 1.6242620249061212E-2
195 149 1.624632586656585E-2
196 172 1.240460111766881E-1
196 171 1.7332192339832013E-2
196 170 7.623192049501124E-2
196 169 6.525297231743539E-2
196 168 6.1849200868165394E-2
196 167 1.7325452194482196E-2
196 166 1.732921179257117E-2
196 165 1.7325465986691928E-2
196 164 1.7324132001082158E-2
196 163 1.732720175980931E-2
196 162 1.7316816503179122E-2
196 161 1.732079211122627E-2
197 181 1.63671750708623E-1
197 180 2.212045224329352E-2
197 179 8.256798458242831E-2
197 178 8.819810604656068E-2
197 177 8.798141610657226E-2
197 176 2.2098888329527208E-2
197 175 2.210968877777172E-2
197 174 2.2110428322471003E-2
197 173 2.2110478468432938E-2
198 194 7.18104814973954E-2
198 193 1.1571905230493701E-2
198 192 4.8320002941054443E-2
198 191 2.7751402405372372E-2
198 190 2.771878952460181E-2
198 189 1.1569842852778588E-2
198 188 1.1569188935186945E-2
198 187 1.1568268578132347E-2
198 186 1.157262509028349E-2
198 185 1.1572663201508373E-2
198 184 1.1563352405692173E-2
198 183 1.1566247920502898E-2
198 182 1.1566249587720108E-2
199 208 1.1467216032009314E-1
199 207 2.1385997292030036E-2
199 206 1.5083565765141192E-2
199 205 1.629205360705818E-2
199 204 1.63467260981558E-2
199 203 1.3361790291944098E-1
199 202 1.0915798019625414E-1
199 201 6.929025990439258E-2
199 200 8.263236289089199E-2
200 80 4.0623694007401834E-4
200 79 4.065203183300795E-4
200 78 4.0640491201977916E-4
200 77 4.064553543215316E-4
200 76 4.065962119959029E-4
200 75 9.251626287534037E-3
200 74 4.763945614997409E-3
200 73 4.0658509625993296E-4
200 72 4.0658704482666E-4
200 71 4.0651595909713443E-4
200 70 4.063953573445772E-4
200 69 4.064316195601504E-4
200 68 4.0637750379934705E-4
200 67 4.064531441973712E-4
201 94 3.8700020636474254E-4
201 93 3.8726914338604716E-4
201 92 3.871595991884698E-4
201 91 3.8720861874948334E-4
201 90 3.8734326045281487E-4
201 89 9.004860611193682E-3
201 88 4.406382014272706E-3
201 87 3.873348929007565E-4
201 86 3.8733430704398364E-4
201 85 3.8726626593855567E-4
201 84 3.87150627705487E-4
201 83 3.871864307629172E-4
201 82 3.871344694190595E-4
201 81 3.872063855891327E-4
202 123 2.1296558285530463E-3
202 122 2.130484587318031E-3
202 121 2.1310723086064576E-3
202 120 2.1310747096958734E-3
202 119 2.131148644501785E-3
202 118 4.656444031769197E-2
202 117 2.1304966114254866E-3
202 116 2.1304969272918075E-3
202 115 5.943599479406398E-3
202 114 5.925659439838662E-3
202 113 2.129542475726992E-3
202 112 2.1300515312834153E-3
202 111 2.1300536573879677E-3
203 138 1.1710646070373269E-1
203 137 1.8337383766456418E-2
203 136 1.7832552631741989E-3
203 135 1.9750234664305217E-2
203 134 2.112099354915241E-2
203 133 3.4280947300913698E-3
203 132 5.869572433783813E-3
203 131 1.7846274115047075E-3
203 130 1.7851879795345584E-3
203 129 2.4685324687537453E-3
203 128 2.4341645178640376E-3
203 127 1.7839768860188818E-3
203 126 1.7837873993909801E-3
203 125 1.784420977334945E-3
203 124 1.7844192707142537E-3
204 160 2.558264407049736E-2
204 159 1.836326579233305E-1
204 158 1.0340453981530726E-1
204 157 1.0398350473527128E-1
204 156 9.248734464917528E-2
204 155 3.0741964325103455E-1
204 154 1.439482411274909E-1
204 153 2.5572592383141336E-2
204 152 2.5570818317859755E-2
204 151 1.2383145818674988E-1
204 150 2.5560056248200833E-2
204 149 2.556588756053841E-2
205 172 2.7086782168369128E-2
205 171 1.9371181166569346E-1
205 170 1.1013181431091969E-1
205 169 1.0951359586154955E-1
205 168 9.797283475902889E-2
205 167 3.292983131567271E-1
205 166 1.5200304413594048E-1
205 165 2.707631856984809E-2
205 164 2.7074233810952406E-2
205 163 1.3275251298153323E-1
205 162 2.7062801116912786E-2
205 161 2.7069014215600932E-2
206 181 2.7685244548116897E-2
206 180 1.8908518668051602E-1
206 179 1.0643797511057612E-1
206 178 9.98406611466705E-2
206 177 1.0015917106373036E-1
206 176 5.988162024834479E-1
206 175 2.4033002299999814E-1
206 174 2.0255326782727837E-1
206 173 2.027693939151306E-1
207 194 2.7804519144287686E-2
207 193 2.3417082680373272E-1
207 192 1.0663483464432376E-1
207 191 1.0019730860613704E-1
207 190 1.0043378542578231E-1
207 189 2.863970488416172E-1
207 188 2.779299336768956E-2
207 187 2.779078236762226E-2
207 186 1.0188090437710544E-1
207 185 1.0237351790616367E-1
207 184 2.777897210600499E-2
207 183 2.7785928084023966E-2
207 182 2.7785932089227534E-2
208 199 2.068516490188614E-1
208 198 1.5932156843628285E-2
208 197 3.298562657941684E-2
208 196 2.655688623022969E-2
208 195 2.661199261607401E-2
