%%MatrixMarket matrix coordinate real general
%Complete acoustic radiance transfer reflection kernel, w.r.t. frequency band #8 (center freq. 16000.00Hz). Includes energy losses due to surface materials and air absorption over propagation paths.
208 208 2354
1 24 5.2160353121737654E-2
1 23 5.318556787970963E-2
1 22 1.0070317905395569E-1
1 21 1.043855994180966E-1
1 20 5.34282446514063E-2
1 19 2.1994480499614397E-1
1 18 2.0122981897412354E-1
1 17 2.007971778986954E-1
1 16 1.7983299791663307E-1
1 15 1.79942481243158E-1
1 14 1.797476603019015E-1
1 13 2.8102544481251746E-1
2 38 6.81836458142146E-2
2 37 1.9612787132670925E-1
2 36 3.341774151187188E-2
2 35 8.008903986331518E-2
2 34 8.383945973118023E-2
2 33 7.201786390872666E-2
2 32 2.517377533508918E-1
2 31 4.5482084733774554E-2
2 30 2.2768476346327518E-1
2 29 2.2751060474251608E-1
2 28 1.4140402290584272E-1
2 27 1.4084877465753548E-1
2 26 4.505640887359761E-1
2 25 6.738697041328814E-2
3 43 2.612703377950901E-1
3 42 9.542258589096096E-2
3 41 1.3965694285674413E-1
3 40 4.4654592162916684E-1
3 39 6.700640242409646E-2
4 48 7.615719388280823E-2
4 47 2.6922475774082577E-1
4 46 1.3040022742689228E-1
4 45 4.1740086647224894E-1
4 44 6.433294542174277E-2
5 57 1.0555862768043192E-1
5 56 2.579901190390385E-1
5 55 4.797512597254427E-2
5 54 9.808966074944721E-2
5 53 2.1797230668609696E-1
5 52 1.0711758263763425E-1
5 51 1.9646002003612265E-1
5 50 3.9325409937001726E-1
5 49 6.302881245700356E-2
6 66 6.651271676117114E-2
6 65 1.6324796427071403E-1
6 64 3.1056265968683723E-2
6 63 6.794907424811934E-2
6 62 6.887148926821937E-2
6 61 1.4638240318793663E-1
6 60 1.357622056497725E-1
6 59 3.931957678494481E-1
6 58 6.302387221815979E-2
7 94 3.958982866125984E-3
7 93 1.6027699967108705E-2
7 92 5.421986832217186E-3
7 91 8.464083519030352E-3
7 90 2.250913584174314E-2
7 89 2.1745223906362635E-2
7 88 2.611968885840737E-2
7 87 7.756595620833078E-3
7 86 7.747149994609244E-3
7 85 2.8470652791604233E-2
7 84 5.325378590523745E-3
7 83 5.722652183200634E-3
7 82 5.156137246252041E-3
7 81 5.958184627796136E-3
8 123 5.675215963955215E-4
8 122 2.069644138905006E-3
8 121 1.6650328616666472E-3
8 120 9.484255291105104E-4
8 119 2.5552566024323762E-3
8 118 2.0010457698903536E-3
8 117 5.397991480008079E-3
8 116 5.1689034992056316E-3
8 115 3.9887491348007745E-3
8 114 1.1238272992078083E-3
8 113 3.395603845165331E-3
8 112 1.0429129364631622E-2
8 111 6.536006132836795E-4
9 138 1.144157451118908E-3
9 137 8.68199288111308E-3
9 136 1.2013989550780852E-3
9 135 5.56004545599554E-3
9 134 1.8257647571166002E-3
9 133 6.8990498968795905E-3
9 132 1.151734318631852E-2
9 131 2.168961065453654E-3
9 130 2.7906775458169586E-3
9 129 1.5300569872770939E-2
9 128 2.599288293018783E-3
9 127 1.6316851735027741E-3
9 126 1.5042028208847014E-3
9 125 1.979844308262452E-3
9 124 1.9783586284679608E-3
10 148 1.1221710179380768E-2
10 147 2.0241864555283654E-2
10 146 4.595533534084965E-3
10 145 3.634219485667751E-3
10 144 2.524197338850803E-2
10 143 4.243424315216284E-3
10 142 2.849020508338563E-3
10 141 1.8806659889473085E-3
10 140 2.4715941324253534E-3
10 139 2.4683711775274836E-3
11 172 1.2967665922229592E-5
11 171 1.2986279455484865E-5
11 170 1.7663933738987372E-4
11 169 1.3184304127429776E-5
11 168 1.1382300786223349E-5
11 167 9.54841001914582E-6
11 166 1.1321709247289241E-5
11 165 9.554327169598701E-6
11 164 9.000306325759335E-6
11 163 1.0332331194348312E-5
11 162 6.528475416380618E-6
11 161 7.76257163518932E-6
12 194 7.602303179735926E-5
12 193 6.587705868235098E-5
12 192 3.2134006371797933E-4
12 191 2.3756426292000573E-4
12 190 7.805338182955653E-5
12 189 5.7275992842578994E-5
12 188 5.481358015479836E-5
12 187 5.1543564617416844E-5
12 186 6.920671483635501E-5
12 185 6.938808907362287E-5
12 184 3.735433120572029E-5
12 183 4.509422597741271E-5
12 182 4.5099164926462356E-5
13 12 5.2161006721338825E-2
13 11 5.3144194131303245E-2
13 10 9.940742543077499E-2
13 9 1.0405199041485642E-1
13 8 5.3463698891530714E-2
13 7 2.1935885308630046E-1
13 6 2.0125523235268467E-1
13 5 2.0086987705761308E-1
13 4 1.8001178522671435E-1
13 3 1.79423057639848E-1
13 2 1.799773419925831E-1
13 1 2.8105070230805107E-1
14 38 6.694667940076311E-2
14 37 3.330244692873713E-2
14 36 1.8733896463476735E-1
14 35 8.043177170349673E-2
14 34 8.341596761451703E-2
14 33 7.204744884396783E-2
14 32 4.541356873932512E-2
14 31 2.509595223643105E-1
14 30 2.254580470525327E-1
14 29 2.2664102767395966E-1
14 28 1.407646043461052E-1
14 27 1.404494666384897E-1
14 26 6.725453654836305E-2
14 25 4.513306699460687E-1
15 43 2.6027312632260924E-1
15 42 9.455239344450792E-2
15 41 1.3871931899355772E-1
15 40 6.671167666513624E-2
15 39 4.4380223018448783E-1
16 48 7.560385828650845E-2
16 47 2.6952601652052416E-1
16 46 1.3029357144663833E-1
16 45 6.425236908341964E-2
16 44 4.157821240697007E-1
17 57 1.0513559034170568E-1
17 56 4.804970657282118E-2
17 55 2.5817592385377935E-1
17 54 9.805591385116884E-2
17 53 2.1781741350460135E-1
17 52 1.074058287107611E-1
17 51 1.964365025769077E-1
17 50 6.30666988060449E-2
17 49 3.938139383936369E-1
18 66 6.642985098379343E-2
18 65 3.102606615103093E-2
18 64 1.6678016729047132E-1
18 63 6.784502011042255E-2
18 62 6.869086217491305E-2
18 61 1.4677573954197742E-1
18 60 1.3613255815523184E-1
18 59 6.306064549624653E-2
18 58 3.9302682881881484E-1
19 80 3.958932324841303E-3
19 79 1.599584764732039E-2
19 78 5.42881141900295E-3
19 77 8.276792440794364E-3
19 76 2.2688304114690503E-2
19 75 2.166958699201814E-2
19 74 2.598251006040545E-2
19 73 7.596552472078098E-3
19 72 7.625928778513247E-3
19 71 2.802057585351517E-2
19 70 5.253412151302508E-3
19 69 5.631073521261986E-3
19 68 5.077813762209798E-3
19 67 5.869352742975859E-3
20 123 5.643860709796275E-4
20 122 1.9168131812109233E-3
20 121 9.423441642585377E-4
20 120 1.6204611363907966E-3
20 119 2.5267186964012547E-3
20 118 1.9641995174744208E-3
20 117 5.277257042136053E-3
20 116 5.511436809327992E-3
20 115 1.1161608553040745E-3
20 114 4.037683029839122E-3
20 113 3.6454528789014247E-3
20 112 6.494954713941943E-4
20 111 8.632900085195929E-3
21 138 1.1467425981924314E-3
21 137 8.537899584348148E-3
21 136 1.2041134354931861E-3
21 135 1.8265182858193476E-3
21 134 6.545363106062007E-3
21 133 6.834945238893627E-3
21 132 1.1536394759572438E-2
21 131 2.1738616876061908E-3
21 130 2.7969828946862603E-3
21 129 2.6053822442042626E-3
21 128 1.5383970836882623E-2
21 127 1.6353718567884241E-3
21 126 1.5076014663391298E-3
21 125 1.984317633777687E-3
21 124 1.982828597189278E-3
22 148 1.1143808355215513E-2
22 147 2.0403884196447265E-2
22 146 4.5854342288454905E-3
22 145 3.6262327978064217E-3
22 144 4.2388811821235245E-3
22 143 2.5182402414967893E-2
22 142 2.8427594012149122E-3
22 141 1.8765329715870816E-3
22 140 2.4661624707072263E-3
22 139 2.462946598687774E-3
23 160 1.4432342004706102E-5
23 159 1.4444436293114576E-5
23 158 1.9073866894166793E-4
23 157 1.4678071271378482E-5
23 156 1.2668671239625623E-5
23 155 1.0647141244977662E-5
23 154 1.2612482883058152E-5
23 153 1.069390306981556E-5
23 152 1.01336788261047E-5
23 151 1.162710768511173E-5
23 150 7.358093073535223E-6
23 149 8.739721698514869E-6
24 194 7.995736625331788E-5
24 193 6.928632000360474E-5
24 192 3.324552371976913E-4
24 191 8.208971175238902E-5
24 190 2.664033008544503E-4
24 189 6.0240132877673273E-5
24 188 5.765028571571712E-5
24 187 5.421104074225454E-5
24 186 7.278829210743975E-5
24 185 7.29790528016041E-5
24 184 3.928748789346845E-5
24 183 4.742793673365595E-5
24 182 4.743313128258057E-5
25 12 3.637046734450061E-1
25 11 3.470576348719346E-1
25 10 2.4768260299202766E-1
25 9 2.9558570473328055E-1
25 8 3.6240525551668434E-1
25 7 2.7853264974463826E-1
25 6 1.939045958244061E-1
25 5 1.9374939707668878E-1
25 4 3.7099786845907967E-1
25 3 3.729489799744635E-1
25 2 5.052532199061245E-2
25 1 1.290494862035269E-1
26 24 3.594239212627581E-1
26 23 3.60982257060246E-1
26 22 2.4462074172169457E-1
26 21 2.941433770615171E-1
26 20 3.625981604126751E-1
26 19 2.775205696510031E-1
26 18 1.92843892507276E-1
26 17 1.9508940343962616E-1
26 16 3.731515817843842E-1
26 15 3.727441442979472E-1
26 14 5.046919935670953E-2
26 13 1.287435008918673E-1
27 43 1.5580502462216134E-1
27 42 3.785918820586788E-2
27 41 1.969903217732469E-1
27 40 1.0069707012933851E-1
27 39 1.013130042009826E-1
28 48 3.3788167482882395E-2
28 47 1.629855436031541E-1
28 46 1.6646504373500287E-1
28 45 9.40806339832633E-2
28 44 9.445347188464055E-2
29 57 2.7387595222121347E-1
29 56 2.3611845640796775E-1
29 55 2.3068964292308858E-1
29 54 8.80336478768554E-2
29 53 3.2713113252297743E-1
29 52 2.5733835346708156E-1
29 51 4.7983068364252715E-2
29 50 1.5344851927066974E-1
29 49 1.5310844083439848E-1
30 66 1.7721708982289192E-1
30 65 1.5205894596154274E-1
30 64 1.5097569180515227E-1
30 63 6.104326145774343E-2
30 62 1.675432621849433E-1
30 61 2.243238601457896E-1
30 60 3.319014150462987E-2
30 59 1.523836697710764E-1
30 58 1.525589167656879E-1
31 80 1.2516499753415847E-3
31 79 2.554776217110241E-2
31 78 1.716364696636116E-3
31 77 2.570370736094987E-3
31 76 1.3916633184650225E-2
31 75 1.6045017597129452E-2
31 74 4.583099899640829E-2
31 73 2.4017143851376016E-3
31 72 2.411001953150438E-3
31 71 3.235901114388303E-3
31 70 1.6609107330220773E-3
31 69 1.7803115728472943E-3
31 68 1.6053938154938843E-3
31 67 1.855645566336192E-3
32 94 1.2504768453644253E-3
32 93 2.5543680857027542E-2
32 92 1.7125785129231835E-3
32 91 2.635347423662907E-3
32 90 1.3785840973663298E-2
32 89 1.6063708129007922E-2
32 88 4.5805696085863E-2
32 87 2.4499836323358835E-3
32 86 2.447000154689659E-3
32 85 3.2888086473965503E-3
32 84 1.6820640162976317E-3
32 83 1.807546102408125E-3
32 82 1.6286077651729066E-3
32 81 1.8819409351867175E-3
33 123 1.9195109936683147E-3
33 122 8.74400615693876E-3
33 121 3.794708550975057E-3
33 120 3.833484857069436E-3
33 119 1.1213077088935994E-2
33 118 7.589675865876496E-3
33 117 3.1875071201995696E-2
33 116 3.1657781619234444E-2
33 115 6.370905647239932E-3
33 114 6.282088536463144E-3
33 113 2.7372669925366307E-2
33 112 1.3322162526214716E-2
33 111 1.4277948960677396E-2
34 138 1.1201862932950879E-3
34 137 2.1349090873353453E-2
34 136 1.1762285347540413E-3
34 135 3.839937818817333E-3
34 134 3.7762960089259105E-3
34 133 4.142257431716065E-3
34 132 3.164347192838899E-2
34 131 2.12351932318045E-3
34 130 2.732210267715723E-3
34 129 5.842710398775959E-3
34 128 5.820112540194686E-3
34 127 1.5974998585580763E-3
34 126 1.4726883792462702E-3
34 125 1.9383647371304024E-3
34 124 1.9369101837029981E-3
35 148 6.855892234281588E-3
35 147 5.490492953301229E-2
35 146 3.4994646293504154E-3
35 145 2.767431126562903E-3
35 144 7.874656271526285E-3
35 143 7.835640845052635E-3
35 142 2.1695079414124907E-3
35 141 1.432113172307393E-3
35 140 1.8821005614214799E-3
35 139 1.8796463052217513E-3
36 160 8.609923282286545E-6
36 159 8.617138389530876E-6
36 158 2.758118801624659E-4
36 157 8.756518348670909E-6
36 156 7.557767646174056E-6
36 155 6.351780554052447E-6
36 154 7.524247276490055E-6
36 153 6.379677323978128E-6
36 152 6.045463531257954E-6
36 151 6.936400560009796E-6
36 150 4.389628297777606E-6
36 149 5.213868498141957E-6
37 172 8.07366156935632E-6
37 171 8.085250344777763E-6
37 170 2.3102893138740019E-4
37 169 8.208540395065481E-6
37 168 7.086614120051714E-6
37 167 5.944834751478537E-6
37 166 7.048889861711448E-6
37 165 5.9485187660497035E-6
37 164 5.6035856977277835E-6
37 163 6.4329036378605815E-6
37 162 4.064625152423515E-6
37 161 4.832972769831187E-6
38 194 2.588662485410629E-4
38 193 2.2431816573003366E-4
38 192 1.6411442461576676E-3
38 191 3.977593991945318E-4
38 190 4.2584638045216783E-4
38 189 1.9503065121296857E-4
38 188 1.86645882547799E-4
38 187 1.7551114305083587E-4
38 186 2.3565598766557805E-4
38 185 2.3627358561285119E-4
38 184 1.2719534274507926E-4
38 183 1.5355048113249885E-4
38 182 1.5356729876239323E-4
39 12 1.3511280097853124E-2
39 11 1.3765955406473606E-2
39 10 1.8926547486373263E-2
39 9 1.8382007824004135E-2
39 8 1.3848716813497306E-2
39 7 1.8243639623455543E-2
39 6 1.1013822260000122E-1
39 5 7.040976926694377E-2
39 4 2.3420319530473452E-2
39 3 2.338804734127795E-2
39 2 1.7245244150962158E-1
39 1 5.95095015519361E-2
40 24 1.3579350378755857E-2
40 23 1.3846253295986509E-2
40 22 1.9048823076330476E-2
40 21 1.8490515754317576E-2
40 20 1.3909431413357825E-2
40 19 1.8339042452494375E-2
40 18 1.1078964080091712E-1
40 17 7.027874070670168E-2
40 16 2.3522809329679E-2
40 15 2.350463546290982E-2
40 14 1.7282165460618587E-1
40 13 5.989076530781872E-2
41 38 1.2295753056190413E-2
41 37 1.2720338859385038E-2
41 36 1.274254146101772E-2
41 35 1.584377889156077E-2
41 34 1.1091134518959715E-1
41 33 7.58099655786278E-2
41 32 6.34840027366655E-2
41 31 6.353016948859501E-2
41 30 5.528463566855998E-2
41 29 6.401859672571533E-2
41 28 8.180364530111771E-2
41 27 1.0682585754519582E-1
41 26 4.7373067673251834E-2
41 25 4.731164592430599E-2
42 57 3.7775108120910754E-3
42 56 4.0839267619967225E-3
42 55 4.079722731419222E-3
42 54 1.7813923201994035E-2
42 53 5.708969063294818E-3
42 52 3.762485357030166E-3
42 51 2.4464876916043394E-2
42 50 9.549862520909155E-3
42 49 9.54556782418382E-3
43 66 1.8995706767216937E-2
43 65 2.0430508709696208E-2
43 64 2.0461102124410206E-2
43 63 4.613804249480803E-2
43 62 1.912461764461123E-2
43 61 3.008656485603106E-2
43 60 1.935370992353469E-1
43 59 1.4039554871152432E-1
43 58 1.40463176042795E-1
44 12 9.583653065372531E-3
44 11 9.764296186117485E-3
44 10 1.3424743142103995E-2
44 9 1.3038497045014344E-2
44 8 9.822999477469077E-3
44 7 1.29403514348476E-2
44 6 4.70844219835095E-2
44 5 8.224954787377464E-2
44 4 1.6612209608169577E-2
44 3 1.6589318700522795E-2
44 2 1.2133210226564284E-1
44 1 4.221390831765887E-2
45 24 9.512662682383701E-3
45 23 9.699634617693024E-3
45 22 1.3344160314548157E-2
45 21 1.29530525605482E-2
45 20 9.743892413736169E-3
45 19 1.2846941856763338E-2
45 18 4.6913359611166376E-2
45 17 8.01618327552963E-2
45 16 1.6478295666141132E-2
45 15 1.64655644338371E-2
45 14 1.2104139389819428E-1
45 13 4.189674910457307E-2
46 38 1.43912581762385E-1
46 37 1.389241154622105E-1
46 36 1.1654075504509752E-1
46 35 7.443585749626269E-2
46 34 1.0655209612801636E-2
46 33 7.081862830765903E-2
46 32 4.852532464076434E-2
46 31 4.789845989595171E-2
46 30 4.474937521712969E-2
46 29 3.583436804724144E-2
46 28 8.196774226526891E-2
46 27 5.719407554004117E-2
46 26 3.320330443210633E-2
46 25 3.3216115474660024E-2
47 57 2.6013401667517744E-2
47 56 2.812350050739829E-2
47 55 2.8094549925527023E-2
47 54 5.614483132757544E-2
47 53 3.9314170822640666E-2
47 52 2.590993056784926E-2
47 51 2.558328324754545E-1
47 50 1.3091518340571576E-1
47 49 1.3064433394464742E-1
48 66 1.4206815311261383E-3
48 65 1.5279898111224426E-3
48 64 1.5302778807263213E-3
48 63 7.705237200490394E-3
48 62 1.4303227255770554E-3
48 61 2.250162499863353E-3
48 60 9.591716342664635E-3
48 59 5.367921203598781E-3
48 58 5.379796256881555E-3
49 12 1.38773744086218E-2
49 11 1.4138950261151074E-2
49 10 2.373671114275204E-1
49 9 1.8880076729106805E-2
49 8 1.4223954126331453E-2
49 7 4.6539854746831436E-2
49 6 1.722917553055711E-1
49 5 2.362008146175566E-2
49 4 1.260415538345429E-1
49 3 7.526770354246691E-2
49 2 9.704243723592025E-2
49 1 7.482204965431047E-2
50 24 1.3875145790101224E-2
50 23 1.4147862583252997E-2
50 22 2.406862848718262E-1
50 21 1.8893289787020418E-2
50 20 1.4212416892908527E-2
50 19 4.6829190712760496E-2
50 18 1.724943073960157E-1
50 17 2.3620705176041836E-2
50 16 1.2353649142523265E-1
50 15 7.488885738631203E-2
50 14 9.762162317379797E-2
50 13 7.483836361621513E-2
51 38 6.189255315569436E-2
51 37 6.1052957447166094E-2
51 36 5.8440983346563745E-2
51 35 2.1893321342601066E-1
51 34 1.4733393476657839E-2
51 33 1.2452464026337602E-2
51 32 5.155637089730771E-2
51 31 5.127021014430027E-2
51 30 1.7097966357673494E-1
51 29 2.4009418719776337E-2
51 28 6.1746830262239816E-2
51 27 8.217541509541189E-2
51 26 8.916979313660343E-2
51 25 8.895769968676648E-2
52 43 9.543747396102122E-2
52 42 4.006007019392437E-3
52 41 4.6237165128117895E-3
52 40 1.5517223647178717E-2
52 39 1.592346736708735E-2
53 48 3.333635376455099E-1
53 47 5.711124795459807E-2
53 46 2.01451117241346E-1
53 45 2.1143248507653478E-1
53 44 2.120400830364398E-1
54 66 2.609804170138552E-2
54 65 1.5963686919524513E-2
54 64 1.4675504509205725E-2
54 63 6.563257745742984E-2
54 62 3.377999901092152E-2
54 61 1.6110763811026118E-2
54 60 1.7348925430599575E-2
54 59 2.2588652190430887E-2
54 58 2.260337618771897E-2
55 80 1.9844483467717356E-4
55 79 3.4014057318031105E-4
55 78 2.7212376876909047E-4
55 77 2.9980893455424344E-4
55 76 8.862191235258181E-3
55 75 3.9517357047218123E-4
55 74 3.896208379815218E-4
55 73 3.8078362440773514E-4
55 72 3.82256136639725E-4
55 71 3.323671453548093E-4
55 70 2.633317319709603E-4
55 69 2.822623278933263E-4
55 68 2.545297140444534E-4
55 67 2.942062756247164E-4
56 94 2.0162055669755994E-4
56 93 3.448497300854623E-4
56 92 2.761274904400359E-4
56 91 3.048105271705032E-4
56 90 8.925452570363831E-3
56 89 4.017287200706893E-4
56 88 3.9553383139618925E-4
56 87 3.950229591876325E-4
56 86 3.9454191835416457E-4
56 85 3.4282020422126433E-4
56 84 2.7120748746693285E-4
56 83 2.914395838475705E-4
56 82 2.625884721283556E-4
56 81 3.034346301020018E-4
57 148 2.0669935810519062E-2
57 147 4.974355575682419E-3
57 146 4.2429003172229285E-3
57 145 3.3553516461647817E-3
57 144 7.389488794469834E-3
57 143 7.4081498125984704E-3
57 142 2.6304040497032795E-3
57 141 1.7363551504762833E-3
57 140 2.2819390720868523E-3
57 139 2.278963427092176E-3
58 12 1.3875651940621507E-2
58 11 1.4137195326199732E-2
58 10 1.943695811622535E-2
58 9 1.699179089886218E-1
58 8 1.4222188640649594E-2
58 7 3.8391241487338544E-2
58 6 2.361529859575722E-2
58 5 1.7085408703995877E-1
58 4 7.169769241681702E-2
58 3 1.1974674495458386E-1
58 2 9.761926227810946E-2
58 1 7.495400559463647E-2
59 24 1.3873760859222421E-2
59 23 1.4146450431477655E-2
59 22 1.9461815818825633E-2
59 21 1.708955174928067E-1
59 20 1.4210998297722922E-2
59 19 3.840600179916998E-2
59 18 2.361608055202492E-2
59 17 1.709180617929475E-1
59 16 7.220177259163219E-2
59 15 1.2019345756206573E-1
59 14 9.707443953251527E-2
59 13 7.498861482270541E-2
60 38 1.1746561482540399E-2
60 37 1.2152183099943368E-2
60 36 1.217339401918994E-2
60 35 1.5136114235133858E-2
60 34 1.652284766722349E-1
60 33 1.2128699450548746E-2
60 32 4.516388726835846E-2
60 31 4.496792756549107E-2
60 30 2.3890761911495473E-2
60 29 1.6956403968058828E-1
60 28 8.182237686604041E-2
60 27 6.772287644547219E-2
60 26 8.850020992481798E-2
60 25 8.880516142485427E-2
61 43 4.6164816833960357E-2
61 42 3.1689711674220983E-1
61 41 1.5514509010731742E-1
61 40 1.6837521378232434E-1
61 39 1.6910638725081192E-1
62 48 2.9928495666812134E-3
62 47 7.641109664692705E-2
62 46 3.6363488629726493E-3
62 45 1.0777263271653442E-2
62 44 1.0932217719232416E-2
63 57 3.433232726436806E-2
63 56 1.6705055728111224E-2
63 55 2.0735505057367827E-2
63 54 9.456142217593758E-2
63 53 2.246196848063589E-2
63 52 4.5232930255455855E-2
63 51 2.5051148966732724E-2
63 50 2.2554295483408243E-2
63 49 2.2585324681359795E-2
64 80 1.0976320508373144E-4
64 79 1.881375222087499E-4
64 78 1.5051627364426098E-4
64 77 1.658294085756707E-4
64 76 2.1847715443259585E-4
64 75 4.241201037212969E-3
64 74 2.1550589620451487E-4
64 73 2.1061788343539308E-4
64 72 2.1143235493509797E-4
64 71 1.838379073863124E-4
64 70 1.4565324891627153E-4
64 69 1.561240827173335E-4
64 68 1.407847034568266E-4
64 67 1.6273048286114507E-4
65 94 1.0823659927482861E-4
65 93 1.8512676810670024E-4
65 92 1.4823439147801905E-4
65 91 1.6363239653976357E-4
65 90 2.1578774507641216E-4
65 89 4.223846106246969E-3
65 88 2.123356740487815E-4
65 87 2.1206142090999494E-4
65 86 2.1180318224237233E-4
65 85 1.840372513367877E-4
65 84 1.455931707664349E-4
65 83 1.5645443086961808E-4
65 82 1.409661975816293E-4
65 81 1.628937693775036E-4
66 138 6.373768037052633E-4
66 137 3.1445038221087126E-3
66 136 6.692643789660836E-4
66 135 1.3831063094095941E-3
66 134 1.2385422842967203E-3
66 133 9.565499442293245E-3
66 132 1.425760519061253E-3
66 131 1.2082650599426457E-3
66 130 1.5546052097859444E-3
66 129 2.593271199190081E-3
66 128 2.612916439197582E-3
66 127 9.089643034037131E-4
66 126 8.379475964276991E-4
66 125 1.1029136206737288E-3
66 124 1.102085991716004E-3
67 24 3.539207331831007E-3
67 23 3.608770656673676E-3
67 22 4.9647245570724665E-3
67 21 4.81921204635809E-3
67 20 3.625236868235729E-3
67 19 4.779733322749336E-3
67 18 9.890718420666597E-3
67 17 1.1527944725824583E-2
67 16 6.13078659308372E-3
67 15 6.126049909757702E-3
67 14 2.9684223223079485E-2
67 13 1.939091598221831E-2
68 38 1.8262569227332694E-3
68 37 1.2776629135805616E-3
68 36 1.2798929988797555E-3
68 35 1.5913891071999615E-3
68 34 1.7532857563733939E-3
68 33 1.1716760363395317E-2
68 32 1.707108251901035E-2
68 31 1.7419549973038597E-3
68 30 4.598830521845151E-3
68 29 5.056819758106081E-3
68 28 8.226229368993627E-3
68 27 7.4114202304276155E-3
68 26 8.635403707439183E-3
68 25 2.5809078574937356E-3
69 57 5.650657199975378E-4
69 56 6.10901498626671E-4
69 55 6.102726311837075E-4
69 54 9.759761153653368E-4
69 53 8.539863615661249E-4
69 52 5.628181103930577E-4
69 51 3.546128582590772E-3
69 50 3.1548235593989154E-3
69 49 8.017646319580911E-4
70 66 2.0159194242323308E-4
70 65 2.1681877836682675E-4
70 64 2.1714345098749482E-4
70 63 5.024923620799294E-4
70 62 2.0296000913914218E-4
70 61 3.1929367643415647E-4
70 60 1.251090730400803E-3
70 59 1.56599851995615E-3
70 58 4.406589356829283E-4
71 94 2.4936148840646225E-2
71 93 7.620503846621478E-2
71 92 3.415106233902281E-2
71 91 9.61529294488669E-2
71 90 9.531063857189277E-2
71 89 9.510358526948516E-2
71 88 1.1064131834719937E-1
71 87 1.1381328671100077E-1
71 86 1.137469230434109E-1
71 85 1.7139211361391996E-1
71 84 3.354256324327954E-2
71 83 3.604484066463727E-2
71 82 3.699206017093085E-2
71 81 1.2971258047555956E-1
72 102 3.768264543120718E-2
72 101 7.127929888290967E-2
72 100 2.4581037797509364E-2
72 99 4.999434156490321E-2
72 98 1.741232312377829E-1
72 97 6.289303756153695E-2
72 96 2.0174928012328702E-1
72 95 3.648191271766994E-2
73 110 9.435392221263604E-2
73 109 2.5932851440768995E-1
73 108 2.5946881192730455E-2
73 107 1.7524559543965626E-1
73 106 5.0863803354944996E-2
73 105 6.337906407322E-2
73 104 2.01063181647827E-1
73 103 3.635107328606303E-2
74 123 3.514105731997972E-2
74 122 7.274236581256796E-2
74 121 2.16313842480381E-1
74 120 3.373588676970923E-2
74 119 9.477660194701591E-2
74 118 1.2718055035318473E-1
74 117 7.765776387439566E-2
74 116 7.664041896494014E-2
74 115 2.5494737680432117E-1
74 114 3.9974999987969634E-2
74 113 4.626028531802092E-2
74 112 1.40119170135864E-1
74 111 2.324884306206975E-2
75 138 3.4375875244637505E-2
75 137 7.711147848554853E-2
75 136 2.3656561578808348E-2
75 135 1.7101453595897542E-1
75 134 2.9395501850192948E-2
75 133 9.93020400868499E-2
75 132 1.5003342831149133E-1
75 131 9.765345576822843E-2
75 130 1.7880269636085586E-1
75 129 2.9051891201661884E-1
75 128 4.184952279793559E-2
75 127 6.745002696962091E-2
75 126 5.525682351394307E-2
75 125 2.218154906568929E-1
75 124 3.185232078601303E-2
76 148 1.4032781702430078E-1
76 147 1.4435167024371123E-1
76 146 2.512552554377984E-1
76 145 1.5075293328771355E-1
76 144 4.109404421201399E-1
76 143 5.803513579403606E-2
76 142 1.0319224286004682E-1
76 141 6.232798138663862E-2
76 140 2.4280262119400817E-1
76 139 3.3758645338438364E-2
77 172 1.1670470393562112E-2
77 171 3.5452684798422244E-3
77 170 1.0343496670070208E-2
77 169 6.525312279093953E-3
77 168 1.3535673187336488E-2
77 167 2.606726367588665E-3
77 166 3.090838994335668E-3
77 165 2.608341756127237E-3
77 164 2.4570934604493146E-3
77 163 2.8207377049122616E-3
77 162 1.7822809215262555E-3
77 161 2.119190537604713E-3
78 181 2.0823489906824704E-3
78 180 3.9980420137123996E-4
78 179 9.405886190997991E-4
78 178 1.867520961844888E-3
78 177 3.934971209616672E-4
78 176 1.8782267120253258E-4
78 175 2.721844398385648E-4
78 174 2.793372313760255E-4
78 173 2.7982969544694324E-4
79 194 1.5573903741769637E-2
79 193 3.1231234702055635E-3
79 192 8.701705424599854E-3
79 191 3.453675513292782E-2
79 190 3.7003830103621888E-3
79 189 2.7153610240632643E-3
79 188 2.5986220710444044E-3
79 187 2.4435959894766623E-3
79 186 3.2809770157384084E-3
79 185 3.2895756713042746E-3
79 184 1.7709076700728886E-3
79 183 2.1378434061528903E-3
79 182 2.138077553639187E-3
80 208 2.1221370319448444E-3
80 207 7.009373360409674E-4
80 206 1.0316026808792683E-3
80 205 1.722385491254685E-3
80 204 4.949434325968963E-4
80 203 3.329396123190314E-3
80 202 2.588203983080471E-4
80 201 2.9411092416005914E-3
80 200 2.4506148485502736E-4
81 12 3.5420488661494724E-3
81 11 3.6088132572065995E-3
81 10 4.961687980614413E-3
81 9 4.818934216374526E-3
81 8 3.6305095691612174E-3
81 7 4.782660308623761E-3
81 6 9.903295776339024E-3
81 5 1.1402492871075257E-2
81 4 6.139752535435419E-3
81 3 6.131292221511037E-3
81 2 2.984272738249072E-2
81 1 1.9360563976317025E-2
82 38 3.0081316698000638E-3
82 37 1.276875210466677E-3
82 36 1.2791039208765198E-3
82 35 1.590407986012347E-3
82 34 1.9632536404344497E-3
82 33 1.1716887827151383E-2
82 32 1.7412372209812158E-3
82 31 1.680246582487118E-2
82 30 4.641339047416797E-3
82 29 4.986748000210734E-3
82 28 8.26822792481556E-3
82 27 7.340677998725363E-3
82 26 2.5786588803457158E-3
82 25 8.586134404332304E-3
83 57 5.62219445720355E-4
83 56 6.078243464302132E-4
83 55 6.071986466351237E-4
83 54 1.0410951918768372E-3
83 53 8.496847744622368E-4
83 52 5.599831574775785E-4
83 51 3.546729093766141E-3
83 50 7.977879100093876E-4
83 49 3.1110279150251127E-3
84 66 2.0150377815724343E-4
84 65 2.167239547929393E-4
84 64 2.1704848542120953E-4
84 63 5.255251787295741E-4
84 62 2.0287124656254358E-4
84 61 3.1915403646502093E-4
84 60 1.2416916142591959E-3
84 59 4.4049259797275287E-4
84 58 1.5779777671394565E-3
85 80 2.495189313963378E-2
85 79 7.774780832248117E-2
85 78 3.421607425623655E-2
85 77 9.516117886346574E-2
85 76 9.517103013276194E-2
85 75 9.513899678045085E-2
85 74 1.1082856945266234E-1
85 73 1.1082191593453684E-1
85 72 1.130471975473297E-1
85 71 1.6889442346568756E-1
85 70 3.311058837637703E-2
85 69 3.5490868051042686E-2
85 68 3.6391436773224414E-2
85 67 1.275872055099575E-1
86 102 3.8295975592289935E-2
86 101 2.470576894206063E-2
86 100 8.444097490921909E-2
86 99 5.14767012264256E-2
86 98 1.7562623469842376E-1
86 97 6.3368619846482E-2
86 96 3.6718069520471165E-2
86 95 2.0279758713280585E-1
87 110 9.956916677809899E-2
87 109 2.6218797668981993E-2
87 108 2.6905708560003866E-1
87 107 1.7761581515815028E-1
87 106 4.9055030765657585E-2
87 105 6.337840596140744E-2
87 104 3.675196842889928E-2
87 103 2.0109270539246032E-1
88 123 3.522516183848263E-2
88 122 7.247850938441851E-2
88 121 3.372111536275723E-2
88 120 2.156512050542696E-1
88 119 9.489722109435864E-2
88 118 1.2716547461634278E-1
88 117 7.847594779700977E-2
88 116 7.769201535458108E-2
88 115 3.994102196697661E-2
88 114 2.546821441849535E-1
88 113 4.5246248544273227E-2
88 112 2.3241733274493068E-2
88 111 1.4209297983105276E-1
89 138 3.367646680952885E-2
89 137 7.73194464939E-2
89 136 2.5107371380644405E-2
89 135 2.9361330611298867E-2
89 134 1.7412653690402186E-1
89 133 9.977735486049913E-2
89 132 1.4925607544028385E-1
89 131 9.887605054539299E-2
89 130 1.7976885365632383E-1
89 129 4.188158970802396E-2
89 128 2.905017086176165E-1
89 127 6.678645326266007E-2
89 126 5.5763093317435966E-2
89 125 3.189795937741813E-2
89 124 2.2197403941157323E-1
90 148 1.418363910383802E-1
90 147 1.477541345125458E-1
90 146 2.512825211082801E-1
90 145 1.513748013476576E-1
90 144 5.84062019871082E-2
90 143 4.1235974331282965E-1
90 142 1.0497318285654729E-1
90 141 6.357093705823007E-2
90 140 3.398047201808891E-2
90 139 2.4218953695402134E-1
91 160 1.1725700692908493E-2
91 159 3.5992560842035832E-3
91 158 1.0727335488814032E-2
91 157 6.588064784510713E-3
91 156 1.3594302051890817E-2
91 155 2.6530483521622875E-3
91 154 3.1427710180285755E-3
91 153 2.6647004359917196E-3
91 152 2.5251040906046833E-3
91 151 2.8972358095606214E-3
91 150 1.833485275966236E-3
91 149 2.1777586787945823E-3
92 181 2.125330595957856E-3
92 180 4.0372850497772143E-4
92 179 9.03840580875187E-4
92 178 3.972581790392701E-4
92 177 1.835571488606711E-3
92 176 1.896662565962105E-4
92 175 2.748560835462176E-4
92 174 2.8207908376465403E-4
92 173 2.825763816480304E-4
93 194 1.549926588108684E-2
93 193 3.1166023769486108E-3
93 192 8.45268515056352E-3
93 191 3.6925181010798573E-3
93 190 3.481906647040222E-2
93 189 2.7096913402889482E-3
93 188 2.5931961386320233E-3
93 187 2.4384937520910096E-3
93 186 3.2741263236996014E-3
93 185 3.2827070252411184E-3
93 184 1.7672100083646121E-3
93 183 2.1333795812822818E-3
93 182 2.133613239867769E-3
94 208 2.396561682486585E-3
94 207 7.062042793445875E-4
94 206 1.045656771472431E-3
94 205 4.991865732961066E-4
94 204 1.7279578980756456E-3
94 203 2.7807722699109104E-3
94 202 5.253321542139163E-4
94 201 2.4702633021269103E-4
94 200 4.350612410605098E-3
95 80 2.3594494378226453E-3
95 79 2.7833471628551997E-2
95 78 3.2354698185261674E-3
95 77 5.7275320748029455E-3
95 76 2.1437490682363627E-2
95 75 1.3070958096299368E-2
95 74 3.441608896024864E-2
95 73 4.527402842217916E-3
95 72 4.5449105700638304E-3
95 71 1.4943730361187353E-2
95 70 3.130935143615577E-3
95 69 3.3560142391704474E-3
95 68 3.0262817960886113E-3
95 67 3.498024187708821E-3
96 94 2.3489889409159283E-3
96 93 2.7516068591658796E-2
96 92 3.217035167200105E-3
96 91 5.8194649676088575E-3
96 90 2.1117729695282278E-2
96 89 1.3302967749445633E-2
96 88 3.458046709384734E-2
96 87 4.602231923858498E-3
96 86 4.596627537002052E-3
96 85 1.4964066587190352E-2
96 84 3.1597144616014755E-3
96 83 3.3954293679984097E-3
96 82 3.0592982538321825E-3
96 81 3.5351781687107293E-3
97 123 1.4427084813582037E-3
97 122 8.491134044888467E-3
97 121 3.3178155605545004E-3
97 120 3.4112391113052835E-3
97 119 1.1483327676844115E-2
97 118 3.5936893385830984E-3
97 117 2.0296921716002007E-2
97 116 2.1120389442384927E-2
97 115 5.501774013688105E-3
97 114 5.485850240476113E-3
97 113 1.7014104656674117E-2
97 112 1.2471041983032302E-2
97 111 1.1671459957220888E-2
98 138 3.731637925001318E-3
98 137 3.000092721570887E-2
98 136 3.918329509144119E-3
98 135 1.0500429197463055E-2
98 134 1.0452567903425495E-2
98 133 2.4922403161136135E-2
98 132 7.035047572478004E-2
98 131 7.07400660790432E-3
98 130 9.101717736694525E-3
98 129 4.456776643969087E-2
98 128 4.42225763466704E-2
98 127 5.321696125957855E-3
98 126 4.905915953978228E-3
98 125 6.4572075277621495E-3
98 124 6.452362024147143E-3
99 148 1.5279245719519571E-2
99 147 2.1410089276583496E-2
99 146 4.7118285357600695E-3
99 145 3.72618738407143E-3
99 144 9.780126946035606E-3
99 143 9.704085374517854E-3
99 142 2.921118087941061E-3
99 141 1.9282582984610473E-3
99 140 2.534140524838485E-3
99 139 2.530836009542357E-3
100 160 1.5485790899567614E-5
100 159 1.5498767977114112E-5
100 158 3.389325221883158E-4
100 157 1.5749456494545318E-5
100 156 1.3593385864070888E-5
100 155 1.1424299877602828E-5
100 154 1.3533096193793501E-5
100 153 1.147447495253424E-5
100 152 1.0873358689342455E-5
100 151 1.2475796258132155E-5
100 150 7.895176730094655E-6
100 149 9.377653515935457E-6
101 172 1.3793105119929854E-5
101 171 1.3812903472415414E-5
101 170 3.263214970270992E-4
101 169 1.402353313644721E-5
101 168 1.2106825715020085E-5
101 167 1.0156201116848756E-5
101 166 1.2042377303801857E-5
101 165 1.0162494915493514E-5
101 164 9.573208625768158E-6
101 163 1.0990021731919615E-5
101 162 6.944036670211605E-6
101 161 8.256687611115062E-6
102 194 2.8184146893257524E-4
102 193 2.4422713155510065E-4
102 192 1.6377230006104613E-3
102 191 5.190661393180923E-4
102 190 5.234156740279284E-4
102 189 2.1234025499473522E-4
102 188 2.0321131087563984E-4
102 187 1.910883270811424E-4
102 186 2.5657122201424334E-4
102 185 2.5724363378538083E-4
102 184 1.3848434256182667E-4
102 183 1.67178585086276E-4
102 182 1.6719689533544951E-4
103 80 2.2532156585730397E-3
103 79 8.09736158170494E-3
103 78 3.0897933819133703E-3
103 77 3.8204726108896684E-3
103 76 1.3621230582482182E-2
103 75 2.0528718133743882E-2
103 74 3.3664822078918764E-2
103 73 4.323557357587373E-3
103 72 4.340276803190266E-3
103 71 1.408082906191008E-2
103 70 2.98996536161481E-3
103 69 3.2049103120731265E-3
103 68 2.8900240119127145E-3
103 67 3.3405262886609098E-3
104 94 2.3843942357140756E-3
104 93 8.233671230818994E-3
104 92 3.2655241474957362E-3
104 91 4.058134742093685E-3
104 90 1.5518396342625519E-2
104 89 2.1148751339843428E-2
104 88 3.445822073763521E-2
104 87 4.671599376022884E-3
104 86 4.6659105166662225E-3
104 85 1.5140496795050126E-2
104 84 3.2073394716823442E-3
104 83 3.4466072069597956E-3
104 82 3.105409733824997E-3
104 81 3.588462380929444E-3
105 123 1.4428583422085987E-3
105 122 2.8963936933594017E-3
105 121 2.5040511571554425E-3
105 120 2.543726280099067E-3
105 119 4.021841302540661E-3
105 118 7.2535430095971316E-3
105 117 2.0579736755088174E-2
105 116 1.9891039418176628E-2
105 115 5.47858284859027E-3
105 114 5.517852095086244E-3
105 113 1.7438809235922042E-2
105 112 1.0735855552993143E-2
105 111 1.2200619784541396E-2
106 138 1.2125044184213042E-3
106 137 1.438389194638978E-2
106 136 1.2731652797386944E-3
106 135 4.212925096743553E-3
106 134 4.29779501065966E-3
106 133 8.241858282686216E-3
106 132 1.5162752334179462E-2
106 131 2.2985253233062425E-3
106 130 2.957380429925223E-3
106 129 6.08790704084806E-3
106 128 6.021690684341127E-3
106 127 1.7291549169302532E-3
106 126 1.5940573255375703E-3
106 125 2.0981115572921366E-3
106 124 2.0965371294776615E-3
107 148 4.3100526112440224E-2
107 147 1.5423037164092385E-1
107 146 1.623933691788748E-2
107 145 1.2842320532225542E-2
107 144 7.67033982424807E-2
107 143 7.708595113098794E-2
107 142 1.006764580820173E-2
107 141 6.645750356951423E-3
107 140 8.733926005116393E-3
107 139 8.722536979213422E-3
108 160 3.3423332638411658E-6
108 159 3.345134135829714E-6
108 158 4.673414027123108E-5
108 157 3.3992408053635725E-6
108 156 2.9338912062270574E-6
108 155 2.465732473378201E-6
108 154 2.920878750373753E-6
108 153 2.4765618732484824E-6
108 152 2.346821591016084E-6
108 151 2.692679314662871E-6
108 150 1.7040338449640883E-6
108 149 2.024000161590926E-6
109 172 3.882536086754706E-6
109 171 3.888109002883099E-6
109 170 8.140122153106608E-5
109 169 3.947397847884567E-6
109 168 3.4078756977424077E-6
109 167 2.8588064107137233E-6
109 166 3.3897345119750906E-6
109 165 2.8605780132751895E-6
109 164 2.694703450194928E-6
109 163 3.0935134327906406E-6
109 162 1.9546340526970227E-6
109 161 2.3241240698510507E-6
110 194 6.611967101873668E-5
110 193 5.729539252485271E-5
110 192 3.551625486866755E-4
110 191 1.128379643269757E-4
110 190 1.240068656189738E-4
110 189 4.981476947824629E-5
110 188 4.7673130122657294E-5
110 187 4.4829092645512986E-5
110 186 6.019130136067877E-5
110 185 6.0349048356765316E-5
110 184 3.2488260886919115E-5
110 183 3.921989581287216E-5
110 182 3.922419137539605E-5
111 12 2.5667418940851413E-4
111 11 2.615122638122053E-4
111 10 3.595481848635877E-4
111 9 3.492035487205186E-4
111 8 2.6308448472008895E-4
111 7 3.4657496390409044E-4
111 6 4.368398436804914E-4
111 5 4.368740861522454E-4
111 4 4.4491650588517116E-4
111 3 4.443034301482904E-4
111 2 1.152125155011462E-2
111 1 3.834568629388274E-4
112 24 2.540985945535166E-4
112 23 2.5909291712852297E-4
112 22 3.5644408875158836E-4
112 21 3.459969685362977E-4
112 20 2.602751143900137E-4
112 19 3.4316258014273576E-4
112 18 4.3252964628860517E-4
112 17 4.325711656217068E-4
112 16 4.4016190936295777E-4
112 15 4.398218375719775E-4
112 14 1.1404802092004057E-2
112 13 3.7965064519815314E-4
113 38 6.828809879616041E-3
113 37 9.843103438045362E-4
113 36 9.860283994859143E-4
113 35 1.226004717351467E-3
113 34 1.4677754998542974E-3
113 33 5.152686806397886E-2
113 32 1.1557625550971371E-2
113 31 1.1124178488233466E-2
113 30 1.9351193014007515E-3
113 29 1.96123720604153E-3
113 28 1.1102539478105912E-2
113 27 8.635684866391304E-3
113 26 3.058793634199849E-3
113 25 3.0507197377809417E-3
114 80 5.4077818881259905E-2
114 79 1.7584286333569163E-2
114 78 2.759785346753031E-1
114 77 1.0171392193862903E-1
114 76 7.105268386869103E-2
114 75 7.65295439107627E-2
114 74 2.0142273274057088E-2
114 73 1.493896689666915E-1
114 72 1.4528148265720958E-1
114 71 6.1510975388138066E-2
114 70 1.3613490835265312E-2
114 69 1.459214802999967E-2
114 68 1.330527156543912E-1
114 67 7.050427554523393E-2
115 94 5.168098025919121E-2
115 93 1.7327364267019328E-2
115 92 2.752671097925249E-1
115 91 9.754767165286692E-2
115 90 7.058711843767614E-2
115 89 7.55148234808023E-2
115 88 1.9874044195519875E-2
115 87 1.4726726068986618E-1
115 86 1.476295903365907E-1
115 85 6.16776540280899E-2
115 84 1.362712659255386E-2
115 83 1.4643711131523553E-2
115 82 1.3413236930619293E-1
115 81 7.086302080720255E-2
116 102 7.408897598078997E-3
116 101 7.657890881079708E-3
116 100 7.663424609089635E-3
116 99 9.919490647896682E-3
116 98 3.559954186271039E-2
116 97 4.547969628280396E-2
116 96 2.0159425904982053E-2
116 95 1.9967961654883938E-2
117 110 1.5029826022501058E-1
117 109 3.3884715193404524E-2
117 108 1.6918644462439095E-1
117 107 3.4986972967939324E-2
117 106 9.658278761336247E-3
117 105 4.479485022968368E-2
117 104 1.9991003680839683E-2
117 103 1.985755586443809E-2
118 138 5.6651676102213416E-2
118 137 1.4334077808664124E-2
118 136 1.8621580388859463E-1
118 135 5.20688923140585E-2
118 134 4.9564522660277895E-2
118 133 6.681348661040987E-2
118 132 1.9865211047882424E-2
118 131 1.3913677452496195E-1
118 130 1.4094971765599934E-1
118 129 7.5320706100106E-2
118 128 7.5734066367667E-2
118 127 1.2664656848539405E-2
118 126 1.5381834513439965E-1
118 125 8.431660516999225E-2
118 124 8.37409525440776E-2
119 148 2.628543422373872E-2
119 147 1.1548920681789827E-2
119 146 1.6318098526966165E-1
119 145 1.2440454265063182E-1
119 144 4.6709494020030454E-2
119 143 4.584323607132422E-2
119 142 1.9096474358229403E-2
119 141 1.507598859413417E-1
119 140 6.48436370542353E-2
119 139 6.46593732465267E-2
120 160 1.959889238202296E-2
120 159 2.896546207098016E-3
120 158 2.943065009258662E-3
120 157 2.8359729756620402E-2
120 156 8.735417621179726E-3
120 155 2.1350737379954234E-3
120 154 2.529184158915585E-3
120 153 2.144450897728252E-3
120 152 2.032108998375726E-3
120 151 2.3315866387173963E-3
120 150 1.475520134612814E-3
120 149 1.752578447730267E-3
121 172 1.952793077444354E-2
121 171 2.877568178756147E-3
121 170 2.9217535010306935E-3
121 169 2.8426074064322116E-2
121 168 8.606223594624122E-3
121 167 2.115786967544856E-3
121 166 2.5087239475174486E-3
121 165 2.1170981208979383E-3
121 164 1.9943352652190198E-3
121 163 2.2894923491476723E-3
121 162 1.4466139573204835E-3
121 161 1.7200714954044437E-3
122 181 2.184954374977878E-2
122 180 3.927660691570184E-3
122 179 1.4290527465317707E-2
122 178 7.931881434314872E-3
122 177 7.93082191016857E-3
122 176 1.845162507391713E-3
122 175 2.6739291922005374E-3
122 174 2.7441979339004113E-3
122 173 2.7490358814925586E-3
123 208 9.927813250970308E-3
123 207 1.326380087089581E-3
123 206 5.4095221492251894E-3
123 205 2.186008875904095E-3
123 204 2.1695707701685275E-3
123 203 3.914662574453862E-3
123 202 7.002841349105597E-4
123 201 2.0332896527600224E-3
123 200 3.4299424894070297E-3
124 12 1.1710120084978924E-3
124 11 1.19308451698729E-3
124 10 1.6403489695599102E-3
124 9 1.5931541457445888E-3
124 8 1.2002573829750461E-3
124 7 1.5811618827418854E-3
124 6 2.416242079225767E-2
124 5 1.9931291193116454E-3
124 4 2.0298206546247167E-3
124 3 2.0270236493954005E-3
124 2 2.0659232715634804E-2
124 1 4.04636097014706E-3
125 24 1.1797624479908512E-3
125 23 1.2029507471528309E-3
125 22 1.6549455987993475E-3
125 21 1.6064403320098842E-3
125 20 1.2084396084260508E-3
125 19 1.5932804599703668E-3
125 18 2.4596657519472192E-2
125 17 2.0083984257403603E-3
125 16 2.043641731331975E-3
125 15 2.042062801195331E-3
125 14 2.0663511712142226E-2
125 13 4.104778598760922E-3
126 38 1.2578610710039554E-3
126 37 1.30129638974359E-3
126 36 1.3035677258822658E-3
126 35 1.620825710650956E-3
126 34 1.5709343584451743E-3
126 33 2.293467821066154E-3
126 32 1.774539665878454E-3
126 31 1.8593974743650744E-3
126 30 1.5977923670015597E-2
126 29 2.559981911359994E-3
126 28 2.0845195138364057E-3
126 27 1.5755986993272228E-2
126 26 4.150496039286244E-3
126 25 4.156972314006693E-3
127 66 1.343180493205062E-3
127 65 1.444634890473232E-3
127 64 1.4467981412734229E-3
127 63 6.204820981678736E-3
127 62 1.3522957410871145E-3
127 61 2.1274116050218755E-3
127 60 1.0080770266398828E-2
127 59 5.07958485749902E-3
127 58 5.097033542479357E-3
128 80 1.8460350180573037E-1
128 79 2.8940261088569397E-1
128 78 4.574834912321623E-2
128 77 1.905511175236672E-1
128 76 2.9103803418038554E-1
128 75 4.184905574368694E-2
128 74 1.501091199131367E-1
128 73 1.7465229395740098E-1
128 72 1.0848549611087122E-1
128 71 9.818544475788459E-2
128 70 3.0121953369538157E-1
128 69 2.989170525811316E-2
128 68 9.946315977715542E-2
128 67 1.1220278729633083E-1
129 94 1.8552040690637975E-1
129 93 2.9020035070543543E-1
129 92 4.544305104576367E-2
129 91 1.930126712599084E-1
129 90 2.9034189340129035E-1
129 89 4.185226895155841E-2
129 88 1.4966080892763015E-1
129 87 1.7458107749568022E-1
129 86 1.122333070777351E-1
129 85 9.954188501723223E-2
129 84 3.049023027266337E-1
129 83 3.0362299823055945E-2
129 82 1.0140777684961891E-1
129 81 1.1405663651113869E-1
130 102 2.75088022918051E-1
130 101 2.539304158670777E-1
130 100 2.6278125814376724E-1
130 99 3.6712344263027963E-1
130 98 7.061366698262976E-2
130 97 2.0499462623505352E-1
130 96 2.755553883522704E-1
130 95 2.7575061011716717E-1
131 110 1.5010464819075678E-2
131 109 1.5487410912567402E-2
131 108 1.5407026390810267E-2
131 107 1.6858472527728882E-1
131 106 1.8421188914319105E-2
131 105 1.4851391221586538E-2
131 104 3.4978141421858545E-2
131 103 3.630534833134431E-2
132 123 1.9216528775134786E-1
132 122 1.9178185206178033E-1
132 121 1.8548302913824669E-1
132 120 1.8734238010992507E-1
132 119 2.3956380996066343E-1
132 118 3.9913996492854736E-2
132 117 1.1070205356423393E-1
132 116 4.1011639323607886E-2
132 115 1.2701945154598948E-1
132 114 1.2705956537720908E-1
132 113 5.879849019346677E-2
132 112 6.1015721437846E-2
132 111 5.9604452276020604E-2
133 148 2.524278501708245E-1
133 147 9.005015331903357E-2
133 146 1.414895936075757E-1
133 145 2.1325929892644147E-1
133 144 1.351216925151727E-1
133 143 1.3414700696309081E-1
133 142 2.7476724867082036E-1
133 141 5.4120737147191324E-2
133 140 9.29660769908765E-2
133 139 9.378733631452076E-2
134 160 2.9073255082767105E-2
134 159 1.5534798085121333E-3
134 158 1.3566040191956005E-2
134 157 2.4128987368564766E-3
134 156 3.6291298316148165E-3
134 155 1.145085803752268E-3
134 154 1.3564556689121547E-3
134 153 1.150114975484604E-3
134 152 1.0898636071941946E-3
134 151 1.2504798839970937E-3
134 150 7.913530709632993E-4
134 149 9.399453820935982E-4
135 172 2.927673725555691E-2
135 171 1.536104359785519E-3
135 170 1.3207530319478612E-2
135 169 2.4045769784731613E-3
135 168 3.666334197901884E-3
135 167 1.129450071493321E-3
135 166 1.339207815032785E-3
135 165 1.1301499917929982E-3
135 164 1.064616685155718E-3
135 163 1.2221775335107918E-3
135 162 7.722319224864101E-4
135 161 9.182091123817196E-4
136 181 1.843534620458198E-3
136 180 7.695190672357405E-5
136 179 6.0400222773200465E-5
136 178 1.1549386950842975E-4
136 177 1.13133209260616E-4
136 176 3.61509774669154E-5
136 175 5.23884230186386E-5
136 174 5.3765149289438204E-5
136 173 5.3859935810240145E-5
137 194 6.960923246297658E-2
137 193 4.417143791293737E-3
137 192 1.709256423648173E-2
137 191 2.0080082727287608E-2
137 190 2.0432829842131347E-2
137 189 3.840430966942399E-3
137 188 3.6753229440132096E-3
137 187 3.456064083382741E-3
137 186 4.640401634038653E-3
137 185 4.652563016196157E-3
137 184 2.504657242802524E-3
137 183 3.023627409653755E-3
137 182 3.0239585727106144E-3
138 208 2.0511282462430783E-2
138 207 3.823955301882873E-3
138 206 4.484360714952413E-3
138 205 3.9550880095889805E-3
138 204 3.9444945907892975E-3
138 203 3.4655491939211386E-2
138 202 4.9457030946424094E-3
138 201 1.55521451496787E-2
138 200 1.3608771104153972E-2
139 12 1.0564292830952788E-3
139 11 1.0763420117012644E-3
139 10 1.4798419430054669E-3
139 9 1.4372651004733539E-3
139 8 1.0828130176501307E-3
139 7 1.426446272216514E-3
139 6 1.7979618595477178E-3
139 5 2.8499714636918107E-2
139 4 1.831204089638538E-3
139 3 1.8286807694609674E-3
139 2 1.4591631062688562E-2
139 1 3.1269148959413213E-3
140 24 1.0739151801731934E-3
140 23 1.0950230451631804E-3
140 22 1.5064653091290945E-3
140 21 1.462311892979711E-3
140 20 1.1000194505439535E-3
140 19 1.4503327132927813E-3
140 18 1.8280311775846722E-3
140 17 2.927354784584313E-2
140 16 1.8602879603859493E-3
140 15 1.858850690497369E-3
140 14 1.4483930128975192E-2
140 13 3.228363838567879E-3
141 38 8.918751318231127E-4
141 37 9.226725557355732E-4
141 36 9.242830262913391E-4
141 35 1.1492319602476719E-3
141 34 1.3239135991760759E-3
141 33 9.208895247668383E-4
141 32 1.2582214641299696E-3
141 31 1.2579640938582836E-3
141 30 1.8139415914044568E-3
141 29 1.3952938871886008E-2
141 28 1.0016125004497427E-2
141 27 1.4849312182705636E-3
141 26 2.784954832324421E-3
141 25 2.791883467944396E-3
142 57 3.143062537468584E-3
142 56 3.398014684779094E-3
142 55 3.394516738202153E-3
142 54 1.1769960803620912E-2
142 53 4.750124535176693E-3
142 52 3.1305606685767197E-3
142 51 2.3071000507260027E-2
142 50 8.158308787402124E-3
142 49 8.120532891270184E-3
143 80 1.6228364213315912E-2
143 79 2.7815917276334434E-2
143 78 2.2253658745358788E-2
143 77 2.4517688214296E-2
143 76 3.2301597167433055E-2
143 75 2.2480591474256764E-1
143 74 1.0798498414791328E-1
143 73 9.004750941348669E-2
143 72 1.3816561657382528E-1
143 71 7.571867734036294E-2
143 70 2.1534666106578136E-2
143 69 3.1350260931099266E-1
143 68 6.806824939869714E-2
143 67 9.113089385596353E-2
144 94 1.633060655583739E-2
144 93 2.7931701782572052E-2
144 92 2.236542483309962E-2
144 91 2.4688657123220374E-2
144 90 3.255779272468096E-2
144 89 2.2550721092360168E-1
144 88 1.091464768736164E-1
144 87 1.0015633872782213E-1
144 86 1.393660582851603E-1
144 85 7.748425077497051E-2
144 84 2.1966920662079895E-2
144 83 3.1828058782211793E-1
144 82 6.910714953518274E-2
144 81 9.243561119955974E-2
145 102 1.2401650440786486E-2
145 101 1.2818436827290098E-2
145 100 1.2827699657489195E-2
145 99 1.6604097159847616E-2
145 98 1.5511655057358584E-1
145 97 1.3050167689627554E-2
145 96 3.2161160497763616E-2
145 95 3.133889600882339E-2
146 110 4.4333763939639094E-2
146 109 4.5742435541462095E-2
146 108 4.550501794947302E-2
146 107 7.057996723685728E-2
146 106 3.557743318602718E-1
146 105 1.9701624870085024E-1
146 104 2.766885450830579E-1
146 103 2.7323306325937213E-1
147 123 7.51015249853178E-3
147 122 1.0103218269362557E-2
147 121 1.253955181317464E-2
147 120 1.2550747676140478E-2
147 119 1.2900938973245105E-2
147 118 6.939123168871987E-2
147 117 1.816745626768894E-2
147 116 5.5503469126653784E-2
147 115 3.0819999494564695E-2
147 114 3.0942315744287147E-2
147 113 2.877250964962667E-2
147 112 2.650956093332937E-2
147 111 2.7184774490234355E-2
148 138 3.474858337627035E-2
148 137 1.358449886816103E-1
148 136 1.792073716513881E-2
148 135 7.516664268779255E-2
148 134 7.507886749700168E-2
148 133 1.3335063188277838E-1
148 132 9.150436763719848E-2
148 131 9.477107585964023E-2
148 130 7.829320702367278E-2
148 129 7.401576853508952E-2
148 128 7.385238422701672E-2
148 127 1.8963547320682894E-1
148 126 3.269736171315769E-2
148 125 6.780269209068046E-2
148 124 6.733683715321093E-2
149 24 8.510336456977544E-6
149 23 8.677607612344093E-6
149 22 1.1938118464240047E-5
149 21 1.158822078694341E-5
149 20 8.717202071618778E-6
149 19 1.1493290710996518E-5
149 18 1.4486395818132932E-5
149 17 1.4487786394475102E-5
149 16 1.4742017565293862E-5
149 15 1.4730627792100296E-5
149 14 1.9103588644078288E-4
149 13 1.2715358510432085E-5
150 38 5.311846764542273E-6
150 37 5.495270643882016E-6
150 36 5.5048623148523115E-6
150 35 6.844617426737375E-6
150 34 6.6339302340878715E-6
150 33 5.4846512343431586E-6
150 32 7.4937391736155825E-6
150 31 7.492206322887757E-6
150 30 1.080350760949508E-5
150 29 2.3894646467514803E-5
150 28 6.842825716153518E-5
150 27 8.843981411629603E-6
150 26 3.720613406953075E-5
150 25 1.1100570450232042E-5
151 94 2.4717066843646983E-3
151 93 4.2275817352899646E-3
151 92 3.3851020701290723E-3
151 91 3.736733147712701E-3
151 90 4.92776025376651E-3
151 89 2.1429079078352446E-2
151 88 2.126259133443499E-2
151 87 5.2010899695116375E-3
151 86 6.7879915864822345E-3
151 85 1.2533470917363447E-2
151 84 3.3247867707622775E-3
151 83 3.5728160822661986E-3
151 82 3.6364423993521266E-3
151 81 5.127534713237316E-3
152 102 1.0950478419114454E-4
152 101 1.13184947853699E-4
152 100 1.132667373079974E-4
152 99 1.4661178242842017E-4
152 98 7.240948179493278E-4
152 97 1.15231097936049E-4
152 96 3.526880090623005E-4
152 95 1.681046690674833E-4
153 110 2.2652987882387726E-5
153 109 2.33727693286418E-5
153 108 2.3251457322701665E-5
153 107 3.60638709750135E-5
153 106 2.7800269630886897E-5
153 105 2.432576113737423E-4
153 104 8.305487698076589E-5
153 103 3.2574837140045154E-5
154 123 4.011522576332261E-3
154 122 5.396599894487343E-3
154 121 6.697959223261084E-3
154 120 6.703939455627572E-3
154 119 6.890992953495282E-3
154 118 5.724394469692404E-2
154 117 6.119852463094283E-3
154 116 1.1487414946477767E-2
154 115 6.732643884037003E-2
154 114 7.94376568451979E-3
154 113 5.959826735678593E-3
154 112 1.3452095168711469E-2
154 111 4.619971526625031E-3
155 138 1.2151356517479076E-2
155 137 4.974376046131254E-3
155 136 9.924344377621609E-4
155 135 2.8024924372484616E-2
155 134 1.5082015949457964E-3
155 133 5.039098769634539E-3
155 132 4.667089485403984E-3
155 131 3.519708428431973E-3
155 130 2.9512422447643136E-3
155 129 7.465871047610219E-3
155 128 2.147182836109758E-3
155 127 1.834695386962907E-3
155 126 1.968006488338833E-3
155 125 3.703866962263303E-3
155 124 1.634254154156401E-3
156 172 1.8890938909540822E-1
156 171 1.874051588579509E-1
156 170 1.6905897493154445E-1
156 169 1.687425130087365E-1
156 168 2.6381936670649764E-1
156 167 9.273485927069848E-2
156 166 1.4412229236865406E-1
156 165 6.141213372517145E-2
156 164 5.7851066415622265E-2
156 163 2.4854816467456686E-1
156 162 4.1962934508668344E-2
156 161 4.9895307000617624E-2
157 181 2.1374487998593175E-1
157 180 2.3038057606101262E-1
157 179 1.3230411927080277E-1
157 178 4.2297853228275295E-1
157 177 6.326123753084192E-2
157 176 4.281153939954476E-2
157 175 1.1226662260609643E-1
157 174 2.667843974544812E-1
157 173 4.498729949685381E-2
158 194 2.1270568391000896E-1
158 193 1.531499940342573E-1
158 192 1.319524222167751E-1
158 191 4.236075815512821E-1
158 190 6.325355198578576E-2
158 189 1.3827252978987423E-1
158 188 1.2028731974108244E-1
158 187 1.1172462082071745E-1
158 186 4.299142362645565E-1
158 185 5.623129961232167E-2
158 184 6.866055235264362E-2
158 183 1.973528727694012E-1
158 182 3.654783823999904E-2
159 199 9.573679956600631E-2
159 198 1.1647917374135637E-1
159 197 2.1764890858053804E-1
159 196 3.8473931352184193E-1
159 195 6.051874915183914E-2
160 208 9.758449549347907E-2
160 207 1.963419649273425E-1
160 206 1.956572963776133E-1
160 205 3.931957678494482E-1
160 204 6.302387221815978E-2
160 203 7.210553160101961E-2
160 202 7.304045790569356E-2
160 201 1.9011249148712855E-1
160 200 3.1205028069691762E-2
161 12 7.965684581020053E-6
161 11 8.11583047129488E-6
161 10 1.1158299316739267E-5
161 9 1.0837261549712523E-5
161 8 8.164623128915602E-6
161 7 1.0755685456727187E-5
161 6 1.3556986057693087E-5
161 5 1.3558048746270756E-5
161 4 1.380763901091048E-5
161 3 1.378861268046595E-5
161 2 1.8425969433332083E-4
161 1 1.190028661485983E-5
162 38 4.989555652277205E-6
162 37 5.161850466960379E-6
162 36 5.170860172666516E-6
162 35 6.429326952204617E-6
162 34 6.231422999107933E-6
162 33 5.15187537971913E-6
162 32 7.039063871343945E-6
162 31 9.699906905984154E-5
162 30 1.0148015341331292E-5
162 29 2.9863746671231705E-5
162 28 6.814631562030346E-5
162 27 8.307381480880036E-6
162 26 1.0424394989060235E-5
162 25 2.3522360681612746E-5
163 80 2.533869785830038E-3
163 79 4.343131040516014E-3
163 78 3.4746492485526605E-3
163 77 3.8281510427052487E-3
163 76 5.0435176349722735E-3
163 75 2.1598932571892333E-2
163 74 2.2350370982054148E-2
163 73 5.18358999001432E-3
163 72 6.883146555683964E-3
163 71 1.2592024484534618E-2
163 70 3.3623869342680425E-3
163 69 3.604104815781428E-3
163 68 3.5873935874522547E-3
163 67 5.111658623687519E-3
164 102 9.295534486979737E-5
164 101 9.607932602693947E-5
164 100 9.614875465498687E-5
164 99 1.2445436880475214E-4
164 98 6.244994383974366E-4
164 97 9.7816241797014E-5
164 96 1.4279447771128274E-4
164 95 3.5283413971199436E-4
165 110 3.4663701518136695E-5
165 109 3.576511424747658E-5
165 108 3.557948208335289E-5
165 107 5.518509370847262E-5
165 106 4.254009464941318E-5
165 105 1.4513935345105263E-4
165 104 5.013343351111307E-5
165 103 3.2697149364034324E-4
166 123 4.000512617345809E-3
166 122 5.381788475038989E-3
166 121 6.6795761143696826E-3
166 120 6.685539933488624E-3
166 119 6.872080047397848E-3
166 118 5.7357976327149895E-2
166 117 6.338654009447471E-3
166 116 1.1592352636312947E-2
166 115 7.91163321391151E-3
166 114 6.71773363822631E-2
166 113 5.95031975638948E-3
166 112 4.603789784732709E-3
166 111 1.3155057280562214E-2
167 138 1.255910495935487E-2
167 137 4.97726061920533E-3
167 136 9.94674872783268E-4
167 135 1.5088211708555038E-3
167 134 2.781794783524569E-2
167 133 5.067430036202165E-3
167 132 4.852247054307575E-3
167 131 3.5758282203978715E-3
167 130 2.935838363386939E-3
167 129 2.152212720094946E-3
167 128 7.421230445638705E-3
167 127 1.7403118209959152E-3
167 126 2.022502410901997E-3
167 125 1.6391735460795675E-3
167 124 3.8682707453882702E-3
168 160 1.8893328221126288E-1
168 159 1.8782641299984915E-1
168 158 1.6873822896123725E-1
168 157 1.6895598264212436E-1
168 156 2.638437569673809E-1
168 155 9.217482568653362E-2
168 154 1.4525035641480605E-1
168 153 6.175130544547077E-2
168 152 5.851632396438803E-2
168 151 2.4812606361440093E-1
168 150 4.248886958425676E-2
168 149 5.0467001672824065E-2
169 181 2.116544931513572E-1
169 180 2.2936092197627608E-1
169 179 1.318797456033302E-1
169 178 6.313691186172858E-2
169 177 4.2369817994937076E-1
169 176 4.350064328711485E-2
169 175 1.1277945746051461E-1
169 174 4.48313041477381E-2
169 173 2.661090950710098E-1
170 194 2.129469827694085E-1
170 193 1.5310838341148694E-1
170 192 1.31955398868468E-1
170 191 6.314352439799309E-2
170 190 4.217960029146776E-1
170 189 1.370768857406106E-1
170 188 1.0701581707794094E-1
170 187 1.0249904256669855E-1
170 186 5.598885902337952E-2
170 185 4.303854511449214E-1
170 184 6.360089463815377E-2
170 183 3.648163717910633E-2
170 182 2.078107234412951E-1
171 199 9.723593327702537E-2
171 198 1.1655756759768557E-1
171 197 2.1791423266908763E-1
171 196 6.0608637274496384E-2
171 195 3.8530145843881486E-1
172 208 9.786651123639929E-2
172 207 1.9685347402530962E-1
172 206 1.9619103969430474E-1
172 205 6.306064549624649E-2
172 204 3.9302682881881484E-1
172 203 7.254835240399989E-2
172 202 7.385738323422397E-2
172 201 3.1206047340021137E-2
172 200 1.8056766015342843E-1
173 80 2.1312522702478684E-4
173 79 3.65303218888637E-4
173 78 2.9225472203446643E-4
173 77 3.2198795874369227E-4
173 76 4.2421313319574106E-4
173 75 8.35576020253944E-4
173 74 1.405672354656966E-2
173 73 4.0895292906585623E-4
173 72 4.1053437362323234E-4
173 71 3.569547346725275E-4
173 70 2.8281227501053644E-4
173 69 3.0314330332997916E-4
173 68 2.733591084823436E-4
173 67 3.1597083081874334E-4
174 94 1.970765314252378E-4
174 93 3.370776759143571E-4
174 92 2.69904264418373E-4
174 91 2.979408569274522E-4
174 90 3.9290499340016407E-4
174 89 7.458360375874137E-4
174 88 1.2936843495356868E-2
174 87 3.86120125373972E-4
174 86 3.856499260030022E-4
174 85 3.350938905092116E-4
174 84 2.6509514606048903E-4
174 83 2.8487126137068667E-4
174 82 2.5667038186456576E-4
174 81 2.9659596915261507E-4
175 123 3.956152522023784E-3
175 122 5.322111960404196E-3
175 121 6.6055089481121855E-3
175 120 6.611406636809877E-3
175 119 6.795878281493803E-3
175 118 4.1685135864357424E-2
175 117 9.543101410969404E-3
175 116 3.136236371011533E-2
175 115 1.717207041253337E-2
175 114 1.7217910393530676E-2
175 113 1.7133496752608682E-2
175 112 1.5155569480146605E-2
175 111 1.4356060691441139E-2
176 138 3.418155427137387E-5
176 137 5.5171997943136626E-5
176 136 3.589163671871733E-5
176 135 5.444398247069746E-5
176 134 5.454448342849363E-5
176 133 6.643532148856875E-5
176 132 7.329302200304897E-4
176 131 6.479742827247996E-5
176 130 8.337112684356701E-5
176 129 8.572724222031222E-5
176 128 8.572569436928777E-5
176 127 4.874638124091963E-5
176 126 4.49378626227909E-5
176 125 5.9147589875469455E-5
176 124 5.910320538583856E-5
177 160 1.8203288587597308E-1
177 159 1.6803607160278622E-1
177 158 3.504558644911761E-1
177 157 4.743193492996271E-2
177 156 1.2114867230254023E-1
177 155 4.525156132098028E-2
177 154 3.285124161938007E-1
177 153 3.4557163892772386E-2
177 152 3.274680888204995E-2
177 151 8.566739931773013E-2
177 150 2.3777551247695716E-2
177 149 2.824226039277223E-2
178 172 1.810371235782591E-1
178 171 1.69459425034566E-1
178 170 3.5064011565272846E-1
178 169 4.737924837568649E-2
178 168 1.2086124079900146E-1
178 167 4.5485473529878355E-2
178 166 3.296597677374664E-1
178 165 3.433452654427154E-2
178 164 3.234359164836286E-2
178 163 8.508015003101688E-2
178 162 2.346079514532255E-2
178 161 2.7895655772421233E-2
179 194 1.2144633217410736E-1
179 193 1.4129142998632752E-1
179 192 1.9164292144682643E-1
179 191 9.585834111815048E-2
179 190 9.597848209640848E-2
179 189 8.076131446715105E-2
179 188 2.4786226549924936E-1
179 187 2.516323192726702E-1
179 186 8.167811413578994E-2
179 185 8.353564196013655E-2
179 184 2.042272230618268E-1
179 183 1.6985669277971385E-1
179 182 1.6816219480470254E-1
180 199 1.2282700684783723E-1
180 198 3.6282561542904024E-1
180 197 5.9730560504137845E-2
180 196 2.0108631637330635E-1
180 195 2.0047312318015115E-1
181 208 6.82370969784836E-2
181 207 3.110965461309525E-1
181 206 4.783285099196657E-2
181 205 1.523836697710764E-1
181 204 1.5255891676568792E-1
181 203 6.544367073752223E-2
181 202 1.818279643746308E-1
181 201 7.322530706983445E-2
181 200 7.577449964868548E-2
182 12 3.7074189868149555E-5
182 11 3.777300453842093E-5
182 10 5.193337788695874E-5
182 9 5.0439191793028314E-5
182 8 3.8000097167359874E-5
182 7 5.005951726169595E-5
182 6 6.309743626308727E-5
182 5 6.310238226838016E-5
182 4 6.426403469967816E-5
182 3 6.417548163431132E-5
182 2 1.6609332325359751E-3
182 1 5.538676317864128E-5
183 24 3.644127757620231E-5
183 23 3.7157532995012075E-5
183 22 5.111904692513916E-5
183 21 4.9620784377460325E-5
183 20 3.7327076548102204E-5
183 19 4.921429360410502E-5
183 18 6.203077560517553E-5
183 17 6.20367300558288E-5
183 16 6.312534843315905E-5
183 15 6.307657740176975E-5
183 14 1.7095056300265074E-3
183 13 5.444719034341754E-5
184 38 1.364849648257955E-4
184 37 1.4119793996035832E-4
184 36 1.4144439264113595E-4
184 35 1.7586865927123128E-4
184 34 5.199692110958597E-4
184 33 4.117980353602879E-4
184 32 3.6286561272489873E-4
184 31 7.881628579696595E-4
184 30 2.775901529991162E-4
184 29 8.494785109912313E-4
184 28 3.4686853533701933E-3
184 27 2.2724121108758485E-4
184 26 4.2651073641517944E-4
184 25 4.4377285223001057E-4
185 80 1.929787070858601E-3
185 79 3.3077146173424764E-3
185 78 2.6462816807411287E-3
185 77 2.9155075090358203E-3
185 76 3.841126792720551E-3
185 75 3.769808089609761E-2
185 74 3.7888880146313094E-3
185 73 8.607741491200202E-3
185 72 2.8740970622111634E-2
185 71 9.660285420432492E-3
185 70 2.5607830636209315E-3
185 69 2.744874623948314E-3
185 68 1.8565355529482897E-2
185 67 1.0020774143878633E-2
186 94 1.8996432865764803E-3
186 93 3.2491303732348426E-3
186 92 2.6016381565718274E-3
186 91 2.871886086922464E-3
186 90 3.787256288596401E-3
186 89 3.754162145467466E-2
186 88 3.7266695407092766E-3
186 87 8.429654815599694E-3
186 86 2.889762109537767E-2
186 85 9.468367589252026E-3
186 84 2.5552825132243518E-3
186 83 2.745906756567252E-3
186 82 1.8821157899433612E-2
186 81 9.886275669088406E-3
187 102 1.532088976634871E-3
187 101 1.5835783998711197E-3
187 100 1.5847227217586166E-3
187 99 2.051255544335728E-3
187 98 1.0499826259018803E-2
187 97 1.6122062265808358E-3
187 96 3.101167486527287E-3
187 95 3.1298898383390495E-3
188 110 3.617292896971052E-4
188 109 3.732229625248327E-4
188 108 3.7128581825193204E-4
188 107 5.758780474898062E-4
188 106 4.4392253415661816E-4
188 105 7.079213680845037E-3
188 104 1.2338096442714136E-3
188 103 1.1203204541243208E-3
189 138 2.9708608627550367E-2
189 137 3.8542805242775583E-3
189 136 2.5073668082851524E-3
189 135 1.294404315212221E-2
189 134 1.327678157383247E-2
189 133 2.4306736881274073E-2
189 132 5.3415432143278044E-3
189 131 2.873498998591655E-2
189 130 1.4884009495416992E-2
189 129 1.0183259369602456E-2
189 128 1.017486488847827E-2
189 127 1.0615104045844294E-2
189 126 2.1598507695254777E-2
189 125 1.4237373939220643E-2
189 124 1.4681059991996025E-2
190 160 1.8177307346084157E-1
190 159 1.9963015788752161E-1
190 158 4.738750990372811E-2
190 157 3.495206499060111E-1
190 156 1.2083109454169053E-1
190 155 1.9207279716591186E-1
190 154 4.0723442738070666E-2
190 153 4.294774964121715E-1
190 152 3.890448837218992E-1
190 151 1.5514738837793401E-1
190 150 2.738408999763048E-1
190 149 3.424539764342555E-1
191 172 1.8262560350375598E-1
191 171 1.994049535868493E-1
191 170 4.741986267139393E-2
191 169 3.4921427954019185E-1
191 168 1.2106388194572384E-1
191 167 1.8830362009424145E-1
191 166 4.071642081707048E-2
191 165 4.2509170345209024E-1
191 164 3.873534088616135E-1
191 163 1.4900162267248507E-1
191 162 2.6907523823917034E-1
191 161 3.404144447018099E-1
192 181 1.2135113701984489E-1
192 180 1.1782032068335867E-1
192 179 1.916444781637931E-1
192 178 9.596529502248921E-2
192 177 9.588480028763126E-2
192 176 2.4856854218822232E-2
192 175 1.3845308188563166E-1
192 174 8.73647149964498E-2
192 173 7.974247185900546E-2
193 199 2.1952999179517856E-2
193 198 2.603419563772678E-2
193 197 2.3726046734321204E-1
193 196 6.949749057899934E-2
193 195 6.924532318029791E-2
194 208 1.084640916847191E-1
194 207 4.798306836425272E-2
194 206 3.107870491670613E-1
194 205 1.5280852562902744E-1
194 204 1.5291705346921977E-1
194 203 5.3898120906628925E-2
194 202 2.5333448418654952E-2
194 201 4.314968902285044E-2
194 200 4.40329715633011E-2
195 160 1.0119062623710365E-1
195 159 1.4099810125652418E-2
195 158 6.32153467957213E-2
195 157 5.365182555080833E-2
195 156 4.4226729866166464E-2
195 155 1.0393113783661362E-2
195 154 1.2311564830600656E-2
195 153 1.0438759929898143E-2
195 152 9.891901935316819E-3
195 151 1.1349699451320016E-2
195 150 7.182538184143585E-3
195 149 8.531202879744435E-3
196 172 1.0153013452807984E-1
196 171 1.4206523464981979E-2
196 170 6.344258809715195E-2
196 169 5.429988416428109E-2
196 168 4.4441169977448756E-2
196 167 1.044561773487566E-2
196 166 1.2385543421937146E-2
196 165 1.0452090885021768E-2
196 164 9.846011973423356E-3
196 163 1.1303199354644878E-2
196 162 7.14191770716876E-3
196 161 8.491974661560457E-3
197 181 1.3259193717166456E-1
197 180 1.8706841050186215E-2
197 179 5.482384058298572E-2
197 178 7.339354471915113E-2
197 177 7.323188043440149E-2
197 176 8.788223945012085E-3
197 175 1.2735511620264523E-2
197 174 1.3070190780457108E-2
197 173 1.3093233177375374E-2
198 194 5.821244590394247E-2
198 193 8.130177028536582E-3
198 192 3.208372048327234E-2
198 191 2.3095584900521687E-2
198 190 2.306930759820682E-2
198 189 7.068681732448336E-3
198 188 6.764784572049846E-3
198 187 6.361217598406266E-3
198 186 8.541104512514573E-3
198 185 8.563488703413471E-3
198 184 4.610062008831875E-3
198 183 5.565276402654876E-3
198 182 5.565885940040298E-3
199 208 5.954900796911822E-2
199 207 1.8466975136660152E-2
199 206 1.3016243286024468E-2
199 205 1.4204509341515474E-2
199 204 1.4251324030730575E-2
199 203 5.3908927608784886E-2
199 202 4.9806439915170926E-2
199 201 2.9919956656826223E-2
199 200 3.5698649877183804E-2
200 80 1.2469849143437672E-4
200 79 2.137370641075591E-4
200 78 1.7099675838952935E-4
200 77 1.8839352467037173E-4
200 76 2.482049567506479E-4
200 75 5.65019970481433E-3
200 74 2.868629218865914E-3
200 73 2.3927628856555322E-4
200 72 2.402015837703718E-4
200 71 2.088524082550096E-4
200 70 1.6547203043606115E-4
200 69 1.7736761218457582E-4
200 68 1.599410305549138E-4
200 67 1.848729335818211E-4
201 94 1.2128882549984111E-4
201 93 2.0745116183140235E-4
201 92 1.6610994212226514E-4
201 91 1.8336478901779144E-4
201 90 2.4180953885220442E-4
201 89 5.61823845848826E-3
201 88 2.706851585779394E-3
201 87 2.3763385812494117E-4
201 86 2.373444785167085E-4
201 85 2.0623026048869172E-4
201 84 1.6315021722199845E-4
201 83 1.7532123414408808E-4
201 82 1.579652784215899E-4
201 81 1.825370909785606E-4
202 123 6.620975917462732E-4
202 122 8.907031496816673E-4
202 121 1.1054911413188543E-3
202 120 1.106478172395607E-3
202 119 1.1373511559347304E-3
202 118 2.8604263173203654E-2
202 117 8.946057708689301E-4
202 116 8.947085445933951E-4
202 115 3.651168152002422E-3
202 114 3.6448945431526206E-3
202 113 6.362312139769559E-4
202 112 7.619418861875655E-4
202 111 7.625214525182895E-4
203 138 3.219285346130238E-2
203 137 8.131471910471281E-3
203 136 5.147128689413467E-4
203 135 8.642564598093908E-3
203 134 9.259438181411853E-3
203 133 1.8300476358447755E-3
203 132 3.605643994959448E-3
203 131 9.292435022545611E-4
203 130 1.1956042077665068E-3
203 129 1.5401464443257848E-3
203 128 1.518575192464749E-3
203 127 6.9905950335048E-4
203 126 6.444425027462337E-4
203 125 8.482206012046425E-4
203 124 8.475840944837745E-4
204 160 2.2169463987853716E-2
204 159 1.5926597974937706E-1
204 158 9.112205153623153E-2
204 157 9.16425727508783E-2
204 156 7.03650962047716E-2
204 155 1.9660957587639852E-1
204 154 1.0903182913886666E-1
204 153 1.6426862592264502E-2
204 152 1.5566304327221961E-2
204 151 8.647683676993963E-2
204 150 1.1302737931225795E-2
204 149 1.3425052246954058E-2
205 172 2.217019806924788E-2
205 171 1.5877803245630936E-1
205 170 9.16551398200305E-2
205 169 9.11311064999123E-2
205 168 7.039747226450549E-2
205 167 1.9853590321123216E-1
205 166 1.0863969613548062E-1
205 165 1.633457609401309E-2
205 164 1.538739316101085E-2
205 163 8.659956407622887E-2
205 162 1.116142210474901E-2
205 161 1.327129737232489E-2
206 181 2.2428062202628392E-2
206 180 1.59905705962662E-1
206 179 7.067313812913237E-2
206 178 8.308182972533934E-2
206 177 8.336811072537341E-2
206 176 2.3813554830696E-1
206 175 1.3843368992566096E-1
206 174 1.1973580136468767E-1
206 173 1.2007460442596421E-1
207 194 2.253945430836145E-2
207 193 1.6452349366085334E-1
207 192 7.080384975725315E-2
207 191 8.338733350891207E-2
207 190 8.358726802204963E-2
207 189 1.7497641179177E-1
207 188 1.625123539758251E-2
207 187 1.5281734917926518E-2
207 186 7.51925725862294E-2
207 185 7.575390805496386E-2
207 184 1.1074883775682026E-2
207 183 1.3369622625654422E-2
207 182 1.3371086934743441E-2
208 199 1.0084103064387827E-1
208 198 1.1193598029456232E-2
208 197 2.789531003142251E-2
208 196 2.176764600745664E-2
208 195 2.1798514952268547E-2
