%%MatrixMarket matrix coordinate real general
%Complete acoustic radiance transfer reflection kernel, w.r.t. frequency band #5 (center freq. 2000.00Hz). Includes energy losses due to surface materials and air absorption over propagation paths.
208 208 2354
1 24 1.08598436596416E-1
1 23 1.0865994817111015E-1
1 22 1.5091871256549005E-1
1 21 1.6102592264271864E-1
1 20 1.0867432174771607E-1
1 19 3.420113236666252E-1
1 18 2.4986628178083725E-1
1 17 2.493058017594263E-1
1 16 2.1953180889615692E-1
1 15 2.1983062901607447E-1
1 14 2.1962483579971448E-1
1 13 3.961144110711691E-1
2 38 1.7042676463497572E-1
2 37 4.7434089669228124E-1
2 36 8.068510967997272E-2
2 35 1.5651446376393954E-1
2 34 1.6889421473389263E-1
2 33 1.7450452440615738E-1
2 32 4.5051897175958083E-1
2 31 8.141255677788758E-2
2 30 2.855618370373239E-1
2 29 2.851613975287724E-1
2 28 2.1641781978733815E-1
2 27 2.145914908635607E-1
2 26 5.50522125515755E-1
2 25 8.231640854836723E-2
3 43 3.110594139888105E-1
3 42 1.671178692034987E-1
3 41 2.1277566418269483E-1
3 40 5.455324954847759E-1
3 39 8.18469001510765E-2
4 48 1.408365218579157E-1
4 47 3.143923087996964E-1
4 46 1.9957659152521193E-1
4 45 5.095436783740611E-1
4 44 7.847602662536532E-2
5 57 1.841552116108959E-1
5 56 4.172391857710038E-1
5 55 7.766632533499701E-2
5 54 2.0186692656629607E-1
5 53 2.5454128858166924E-1
5 52 1.8759984334407823E-1
5 51 2.4624264849295657E-1
5 50 4.882565062148726E-1
5 49 7.826122326649115E-2
6 66 1.310947954475081E-1
6 65 2.9978594132192576E-1
6 64 5.694838839001959E-2
6 63 1.480638597144032E-1
6 62 1.8355279194874619E-1
6 61 2.511650916116045E-1
6 60 2.4539304314212235E-1
6 59 4.8822965217265607E-1
6 58 7.826105408103029E-2
7 94 9.953322373789786E-3
7 93 2.3924226247510904E-2
7 92 1.0044430536814515E-2
7 91 1.4244382982938454E-2
7 90 2.89473325395403E-2
7 89 2.798086858750261E-2
7 88 3.412158255776585E-2
7 87 1.0145610486424105E-2
7 86 1.0145270602322523E-2
7 85 4.2742128824207845E-2
7 84 1.0039279953951409E-2
7 83 1.00598508016637E-2
7 82 1.0030010179727778E-2
7 81 1.0071334617829733E-2
8 123 1.4380213081424652E-3
8 122 3.931936917036237E-3
8 121 2.5642671739207028E-3
8 120 1.4593751590167897E-3
8 119 3.828072357506621E-3
8 118 2.614110573832944E-3
8 117 1.0211713039648077E-2
8 116 9.777242055683751E-3
8 115 5.210721829158132E-3
8 114 1.466255438568565E-3
8 113 8.943255638436695E-3
8 112 2.3057714614434562E-2
8 111 1.4439761832295895E-3
9 138 3.267281838677953E-3
9 137 1.5575780429972819E-2
9 136 3.2720376319354864E-3
9 135 1.0104470910859262E-2
9 134 3.3120881622188828E-3
9 133 1.0332599290919916E-2
9 132 1.5045937008960963E-2
9 131 3.3282101998467813E-3
9 130 3.3514407405122425E-3
9 129 1.968815022404238E-2
9 128 3.3449343107548545E-3
9 127 3.3014575627695465E-3
9 126 3.293706326772933E-3
9 125 3.319696792720409E-3
9 124 3.319626503847066E-3
10 148 1.5628312325300677E-2
10 147 2.8198685634141695E-2
10 146 5.091224806966149E-3
10 145 5.0584106535515065E-3
10 144 2.408458541037702E-2
10 143 4.053303546286299E-3
10 142 4.008336456623647E-3
10 141 3.994893755010525E-3
10 140 4.026143399131325E-3
10 139 4.025995666619392E-3
11 172 1.5926879570122038E-5
11 171 1.5927509589876236E-5
11 170 2.1345924316969056E-4
11 169 1.5934152936555476E-5
11 168 1.5869331746597315E-5
11 167 1.579092925818322E-5
11 166 1.5866964622703478E-5
11 165 1.5791207515972442E-5
11 164 1.5764317504141617E-5
11 163 1.5826266696307627E-5
11 162 1.5617682642359737E-5
11 161 1.569719790140346E-5
12 194 9.425140650506209E-5
12 193 9.387676782754301E-5
12 192 4.8380164053654266E-4
12 191 2.870837748623535E-4
12 190 9.431991974179374E-5
12 189 9.350706152184737E-5
12 188 9.339014927205722E-5
12 187 9.322585361188791E-5
12 186 9.400616229157259E-5
12 185 9.401301783625291E-5
12 184 9.235323445058495E-5
12 183 9.286617371700209E-5
12 182 9.286646989965317E-5
13 12 1.0858825062308115E-1
13 11 1.0864725883209546E-1
13 10 1.4916587839183015E-1
13 9 1.6062843256712836E-1
13 8 1.0866618205966079E-1
13 7 3.4112697489571464E-1
13 6 2.4991239143039223E-1
13 5 2.494148577944799E-1
13 4 2.195859300040189E-1
13 3 2.1916146147503762E-1
13 2 2.198509344172753E-1
13 1 3.9615001232419833E-1
14 38 1.673349354831424E-1
14 37 8.05429255483539E-2
14 36 4.523185656792176E-1
14 35 1.5718424942090825E-1
14 34 1.6804109176865453E-1
14 33 1.7457621085690228E-1
14 32 8.127376215936707E-2
14 31 4.4921547644591425E-1
14 30 2.827690931613581E-1
14 29 2.840714711387074E-1
14 28 2.1543919437211853E-1
14 27 2.1398312133156333E-1
14 26 8.217501424725847E-2
14 25 5.513220076497583E-1
15 43 3.098721685522615E-1
15 42 1.6559386200865714E-1
15 41 2.113471384240601E-1
15 40 8.14997644952809E-2
15 39 5.420950163961089E-1
16 48 1.3981324543674195E-1
16 47 3.1474410944422226E-1
16 46 1.9941335532980883E-1
16 45 7.843632133233755E-2
16 44 5.071884836756921E-1
17 57 1.8341719016874253E-1
17 56 7.770925693454912E-2
17 55 4.179577414172165E-1
17 54 2.0179747599847325E-1
17 53 2.5436040913597346E-1
17 52 1.8810466166457815E-1
17 51 2.462131717503509E-1
17 50 7.830236497693044E-2
17 49 4.889884380909979E-1
18 66 1.3093146920458926E-1
18 65 5.697576988573654E-2
18 64 3.058275502981454E-1
18 63 1.478371214193326E-1
18 62 1.8307139380228182E-1
18 61 2.518399839432326E-1
18 60 2.460624630879387E-1
18 59 7.83021576880353E-2
18 58 4.880483033319913E-1
19 80 9.948455701638997E-3
19 79 2.3816006120062305E-2
19 78 1.0039878183154912E-2
19 77 1.393159476356782E-2
19 76 2.8041406538404066E-2
19 75 2.677040919824055E-2
19 74 3.2543360391906515E-2
19 73 9.733344756908421E-3
19 72 9.734377994544042E-3
19 71 4.097766344982949E-2
19 70 9.633268721581068E-3
19 69 9.652313416702356E-3
19 68 9.623906237029349E-3
19 67 9.663636189270483E-3
20 123 1.4300763199888596E-3
20 122 3.6415866711522766E-3
20 121 1.4512759853431015E-3
20 120 2.493459587511054E-3
20 119 3.7853192464825203E-3
20 118 2.5659756538346443E-3
20 117 9.983312265375181E-3
20 116 1.0425161113510155E-2
20 115 1.4581021611115295E-3
20 114 5.26795772436819E-3
20 113 9.60130171259806E-3
20 112 1.4359665796804465E-3
20 111 1.9072353761414203E-2
21 138 3.2746640430025187E-3
21 137 1.5317272322148414E-2
21 136 3.27943058165616E-3
21 135 3.319397482139744E-3
21 134 1.1873829624824826E-2
21 133 1.0236590745750528E-2
21 132 1.5070825454712979E-2
21 131 3.335730067719678E-3
21 130 3.359013096234743E-3
21 129 3.3524997723275397E-3
21 128 1.979710062410107E-2
21 127 3.308916984852065E-3
21 126 3.3011482354572447E-3
21 125 3.3271974251205157E-3
21 124 3.327126977434174E-3
22 148 1.5519819589407147E-2
22 147 2.842439314815312E-2
22 146 5.080036153246843E-3
22 145 5.047294113363535E-3
22 144 4.044521175264906E-3
22 143 2.405413963590287E-2
22 142 3.999527596220887E-3
22 141 3.986114436759036E-3
22 140 4.017295405568849E-3
22 139 4.017147997719053E-3
23 160 1.772682620675603E-5
23 159 1.772723572415026E-5
23 158 2.3048912839574397E-4
23 157 1.7735075404633704E-5
23 156 1.8245094135949194E-5
23 155 1.815590651589523E-5
23 154 1.824282774895648E-5
23 153 1.8152586374371695E-5
23 152 1.812473311987752E-5
23 151 1.8195673230044728E-5
23 150 1.795669806932202E-5
23 149 1.8047547826372653E-5
24 194 9.912909353448557E-5
24 193 9.87350666028723E-5
24 192 5.00536370411534E-4
24 191 9.920105001303946E-5
24 190 3.2192247621519167E-4
24 189 9.834622730257365E-5
24 188 9.822326462461985E-5
24 187 9.80504663559451E-5
24 186 9.887115747305941E-5
24 185 9.887836780503263E-5
24 184 9.713268751668566E-5
24 183 9.767217235201747E-5
24 182 9.767248386267616E-5
25 12 7.571566715309461E-1
25 11 7.095198506994704E-1
25 10 3.716602947675064E-1
25 9 4.563052398253576E-1
25 8 7.365969113968722E-1
25 7 4.33148691654105E-1
25 6 2.4078460313965874E-1
25 5 2.4057354456282345E-1
25 4 4.525587692633242E-1
25 3 4.5554927322047395E-1
25 2 6.171909823975297E-2
25 1 1.81899405089991E-1
26 24 7.483246103297954E-1
26 23 7.374991921035937E-1
26 22 3.6660061533581983E-1
26 21 4.5374753744398755E-1
26 20 7.375332917432809E-1
26 19 4.3154089214664315E-1
26 18 2.3945350957719008E-1
26 17 2.4221914196335015E-1
26 16 4.5552619758674057E-1
26 15 4.553709559686969E-1
26 14 6.166583533295163E-2
26 13 1.8146810894310533E-1
27 43 1.8549606535699303E-1
27 42 6.630450017324671E-2
27 41 3.001264791816348E-1
27 40 1.2301875640302667E-1
27 39 1.2375168698598031E-1
28 48 6.2484024760215E-2
28 47 1.9032945478104094E-1
28 46 2.547735283310999E-1
28 45 1.1484928794890957E-1
28 44 1.1521830884447708E-1
29 57 4.777978365645499E-1
29 56 3.818668438315624E-1
29 55 3.7346054847114984E-1
29 54 1.8117181561789109E-1
29 53 3.8201357444684336E-1
29 52 4.5068824004516156E-1
29 51 6.014189469521433E-2
29 50 1.9051864436496965E-1
29 49 1.9011073515464524E-1
30 66 3.492901699317931E-1
30 65 2.792386076919594E-1
30 64 2.768466222900562E-1
30 63 1.330158063373338E-1
30 62 4.4652778490791356E-1
30 61 3.8489819580191975E-1
30 60 5.999187908857042E-2
30 59 1.8921420872874722E-1
30 58 1.8944284467660266E-1
31 80 3.1452885050623964E-3
31 79 3.803772539198931E-2
31 78 3.1741924966808056E-3
31 77 4.326478372335756E-3
31 76 1.720013830932137E-2
31 75 1.9821867709169598E-2
31 74 5.740379639972116E-2
31 73 3.0772793585108643E-3
31 72 3.077606025337936E-3
31 71 4.732224901998133E-3
31 70 3.0456394725840983E-3
31 69 3.0516606142008355E-3
31 68 3.0426794438195843E-3
31 67 3.0552404046197746E-3
32 94 3.1438375925711146E-3
32 93 3.812854004453772E-2
32 92 3.1726148447438667E-3
32 91 4.435081236066898E-3
32 90 1.7728949072393512E-2
32 89 2.0670125454732693E-2
32 88 5.9838493830550434E-2
32 87 3.2045733523909936E-3
32 86 3.20446599724107E-3
32 85 4.937388823295448E-3
32 84 3.1709879913756557E-3
32 83 3.177485460453846E-3
32 82 3.1680600580098446E-3
32 81 3.181112716922904E-3
33 123 4.8637756301084E-3
33 122 1.6611976892534616E-2
33 121 5.84411683149692E-3
33 120 5.898715714792084E-3
33 119 1.679849702996029E-2
33 118 9.914941592785049E-3
33 117 6.0300035937189585E-2
33 116 5.988229300175552E-2
33 115 8.322663573385649E-3
33 114 8.196229517338924E-3
33 113 7.20934466479789E-2
33 112 2.9453908455514075E-2
33 111 3.154375596590438E-2
34 138 3.198829259416892E-3
34 137 3.830097033899641E-2
34 136 3.203485414402925E-3
34 135 6.97845733399688E-3
34 134 6.850513057306841E-3
34 133 6.2037942675433515E-3
34 132 4.1338152182955896E-2
34 131 3.2584811150137847E-3
34 130 3.281224954346243E-3
34 129 7.518161807253214E-3
34 128 7.489701769687892E-3
34 127 3.232288970450019E-3
34 126 3.2247001300233706E-3
34 125 3.250146071648139E-3
34 124 3.2500772553917634E-3
35 148 9.548101260254488E-3
35 147 7.64873632781019E-2
35 146 3.876929849364479E-3
35 145 3.8519421154343675E-3
35 144 7.513589711463758E-3
35 143 7.484575773106212E-3
35 142 3.0523184192764695E-3
35 141 3.0420819019125723E-3
35 140 3.0658782736438257E-3
35 139 3.0657657764340284E-3
36 160 1.05753185192554E-5
36 159 1.0575562825643505E-5
36 158 3.3329182914283495E-4
36 157 1.0580239755243572E-5
36 156 1.0884502372338124E-5
36 155 1.083129558399123E-5
36 154 1.088315031055017E-5
36 153 1.0829314882328629E-5
36 152 1.0812698425742536E-5
36 151 1.0855019270549112E-5
36 150 1.071245351098468E-5
36 149 1.0766651882819634E-5
37 172 9.916066335779863E-6
37 171 9.91645858572738E-6
37 170 2.7918617434240857E-4
37 169 9.920594729663981E-6
37 168 9.880237092955588E-6
37 167 9.831423747404658E-6
37 166 9.87876332293975E-6
37 165 9.831596990549007E-6
37 164 9.814855284183337E-6
37 163 9.85342481666844E-6
37 162 9.723560501036062E-6
37 161 9.773066656960255E-6
38 194 3.2093574072024393E-4
38 193 3.1966005746064636E-4
38 192 2.4708661268736864E-3
38 191 4.8067107570888676E-4
38 190 5.145939289894063E-4
38 189 3.1840116943481086E-4
38 188 3.180030711901586E-4
38 187 3.174436275558535E-4
38 186 3.2010065892961435E-4
38 185 3.201240027649119E-4
38 184 3.144722694903969E-4
38 183 3.16218880490873E-4
38 182 3.1621988902328686E-4
39 12 2.812764480069194E-2
39 11 2.8142929713506685E-2
39 10 2.8400243427444564E-2
39 9 2.837690170494706E-2
39 8 2.8147831402413045E-2
39 7 2.8370852182512854E-2
39 6 1.3676616640517375E-1
39 5 8.742596374477812E-2
39 4 2.8569088621688176E-2
39 3 2.856800404466781E-2
39 2 2.1065890844189294E-1
39 1 8.388055813277026E-2
40 24 2.82723588486072E-2
40 23 2.828837268239339E-2
40 22 2.8547498515685322E-2
40 21 2.852359306337932E-2
40 20 2.8292114678396988E-2
40 19 2.851697353827473E-2
40 18 1.3756706509942968E-1
40 17 8.725669345495779E-2
40 16 2.8715558002640626E-2
40 15 2.8714946925860872E-2
40 14 2.1116228968860193E-1
40 13 8.441796167010825E-2
41 38 3.073354888981724E-2
41 37 3.076450531979374E-2
41 36 3.07660933644652E-2
41 35 3.0962795426680137E-2
41 34 2.2343040629005986E-1
41 33 1.8369306267278193E-1
41 32 1.1361326322889279E-1
41 31 1.1371847972391362E-1
41 30 6.93378945578832E-2
41 29 8.02407981412409E-2
41 28 1.251998790622322E-1
41 27 1.6275555175499343E-1
41 26 5.7882824130182184E-2
41 25 5.779343916361758E-2
42 57 6.590160541581539E-3
42 56 6.604804413715095E-3
42 55 6.604611588020059E-3
42 54 3.6660764237527795E-2
42 53 6.666756726746316E-3
42 52 6.58940993796531E-3
42 51 3.0664234309622115E-2
42 50 1.1856920288335493E-2
42 49 1.1852481199824263E-2
43 66 3.744003273796363E-2
43 65 3.751825826792768E-2
43 64 3.7519861268696934E-2
43 63 1.0053671410596891E-1
43 62 5.09699587001744E-2
43 61 5.1622972801188896E-2
43 60 3.498223788789798E-1
43 59 1.743286055415078E-1
43 58 1.7442273585834955E-1
44 12 1.9951150991140632E-2
44 11 1.996199269529376E-2
44 10 2.014450725686628E-2
44 9 2.0127950796727478E-2
44 8 1.996546950027247E-2
44 7 2.0123659824754378E-2
44 6 5.8467948184302815E-2
44 5 1.021271062993378E-1
44 4 2.026427042894672E-2
44 3 2.026350113027105E-2
44 2 1.4821296815803214E-1
44 1 5.95018626993628E-2
45 24 1.980546973608226E-2
45 23 1.9816687813148607E-2
45 22 1.999821171345639E-2
45 21 1.9981465367150123E-2
45 20 1.9819309171663427E-2
45 19 1.9976828230049953E-2
45 18 5.825213575030253E-2
45 17 9.952734492935336E-2
45 16 2.0115941440239298E-2
45 15 2.011551336620654E-2
45 14 1.4789453289800766E-1
45 13 5.905481657871314E-2
46 38 3.597131747231461E-1
46 37 3.359919681724137E-1
46 36 2.813805834143523E-1
46 35 1.4546669982209384E-1
46 34 2.1464871865221204E-2
46 33 1.7159868928613128E-1
46 32 8.684267286275736E-2
46 31 8.573784840070849E-2
46 30 5.612458909810719E-2
46 29 4.4914734781161425E-2
46 28 1.254510282621314E-1
46 27 8.713857801420294E-2
46 26 4.05694865327387E-2
46 25 4.0575074306392775E-2
47 57 4.5382396437586583E-2
47 56 4.5483239809512535E-2
47 55 4.5481911937136695E-2
47 54 1.155451497750707E-1
47 53 4.5909867417818655E-2
47 52 4.53772274905383E-2
47 51 3.206604286644565E-1
47 50 1.6254170055074446E-1
47 49 1.6221764283309098E-1
48 66 2.800125506642354E-3
48 65 2.805975963645316E-3
48 64 2.806095851450238E-3
48 63 1.6790032425661586E-2
48 62 3.812023414289044E-3
48 61 3.860862085271127E-3
48 60 1.7337229098608464E-2
48 59 6.665326833138081E-3
48 58 6.680461085401477E-3
49 12 2.8889776194777367E-2
49 11 2.8905475259292136E-2
49 10 3.5618137703479874E-1
49 9 2.9145786828798037E-2
49 8 2.8910509761700162E-2
49 7 7.237455720844153E-2
49 6 2.1394646036680232E-1
49 5 2.9328435627946927E-2
49 4 1.5375077683415123E-1
49 3 9.193790434308913E-2
49 2 1.1854198016395903E-1
49 1 1.0546408761572332E-1
50 24 2.8888208192064068E-2
50 23 2.890457085097222E-2
50 22 3.607042457474431E-1
50 21 2.9144914975540125E-2
50 20 2.8908394357888806E-2
50 19 7.28187851592532E-2
50 18 2.1418550907182193E-1
50 17 2.9327000028890347E-2
50 16 1.5080763675995812E-1
50 15 9.1489594407013E-2
50 14 1.1927906557468647E-1
50 13 1.0548708267019752E-1
51 38 1.547020178132543E-1
51 37 1.4765833323588728E-1
51 36 1.411022091199014E-1
51 35 4.2785148327372874E-1
51 34 2.9680354925762265E-2
51 33 3.0173226400533593E-2
51 32 9.226714267182189E-2
51 31 9.177325355289778E-2
51 30 2.1444239871093265E-1
51 29 3.0093363796089626E-2
51 28 9.450307077211605E-2
51 27 1.2519913560151766E-1
51 26 1.0895218965870378E-1
51 25 1.0866608642632877E-1
52 43 1.136245506222387E-1
52 42 7.01590038505276E-3
52 41 7.044507289660416E-3
52 40 1.89569523070701E-2
52 39 1.945017784127809E-2
53 48 6.164849144585202E-1
53 47 6.66927412380219E-2
53 46 3.08319457192007E-1
53 45 2.581070017515861E-1
53 44 2.586553917736283E-1
54 66 5.143854596570881E-2
54 65 2.9315458428639658E-2
54 64 2.6910715262822474E-2
54 63 1.4301611683282875E-1
54 62 9.002873607586848E-2
54 61 2.764308673996934E-2
54 60 3.135854773635021E-2
54 59 2.804824136918456E-2
54 58 2.806815868307176E-2
55 80 4.986747650666328E-4
55 79 5.064308032404163E-4
55 78 5.032573943569503E-4
55 77 5.046419385993297E-4
55 76 1.095314599067141E-2
55 75 4.881938077438549E-4
55 74 4.8800409649226264E-4
55 73 4.878921468348295E-4
55 72 4.8794393874612246E-4
55 71 4.860581415360654E-4
55 70 4.828757508330414E-4
55 69 4.838303823004971E-4
55 68 4.824064483679865E-4
55 67 4.843979458620842E-4
56 94 5.068964594831653E-4
56 93 5.147502748921225E-4
56 92 5.115363579545404E-4
56 91 5.129720041733965E-4
56 90 1.1478363515896227E-2
56 89 5.169281573060535E-4
56 88 5.167075440881586E-4
56 87 5.166891859552532E-4
56 86 5.166718765543058E-4
56 85 5.146655905511072E-4
56 84 5.112740523524976E-4
56 83 5.123216713768131E-4
56 82 5.108019671976412E-4
56 81 5.129065118488997E-4
57 148 2.878671855064203E-2
57 147 6.9297118715525765E-3
57 146 4.700555264870043E-3
57 145 4.670259069466452E-3
57 144 7.050667999295917E-3
57 143 7.076237886263581E-3
57 142 3.7007611623774226E-3
57 141 3.6883499717037796E-3
57 140 3.717201708715344E-3
57 139 3.717065312295408E-3
58 12 2.8886190378500754E-2
58 11 2.890188749443826E-2
58 10 2.9166140437778394E-2
58 9 2.623077874541969E-1
58 8 2.890692137196084E-2
58 7 5.970257359940834E-2
58 6 2.93247319705263E-2
58 5 2.1214503860354667E-1
58 4 8.745985407933407E-2
58 3 1.4626811055580122E-1
58 2 1.1924659955169178E-1
58 1 1.0565008376146183E-1
59 24 2.888532475053749E-2
59 23 2.8901685776226652E-2
59 22 2.9166429651542165E-2
59 21 2.636245663500339E-1
59 20 2.8905508901504524E-2
59 19 5.9720835471913966E-2
59 18 2.9323995160627815E-2
59 17 2.1220848259110314E-1
59 16 8.814058557761456E-2
59 15 1.4683694032084169E-1
59 14 1.1861048876446731E-1
59 13 1.0569886658254518E-1
60 38 2.9360830521002027E-2
60 37 2.9390404277594012E-2
60 36 2.939192139202247E-2
60 35 2.9579837728418552E-2
60 34 3.328520234828757E-1
60 33 2.938872127567735E-2
60 32 8.082692318479927E-2
60 31 8.049221968470784E-2
60 30 2.9963752320951373E-2
60 29 2.1253127334729807E-1
60 28 1.252285475849409E-1
60 27 1.0317983281954726E-1
60 26 1.0813405882631559E-1
60 25 1.0847975364107645E-1
61 43 5.4962231811154866E-2
61 42 5.549961826354898E-1
61 41 2.3637277830240266E-1
61 40 2.0569922622366732E-1
61 39 2.0655986728887743E-1
62 48 5.534638317477484E-3
62 47 8.923050500381685E-2
62 46 5.565405260320848E-3
62 45 1.3156384692385554E-2
62 44 1.3335577955969373E-2
63 57 5.989540723857163E-2
63 56 2.70165534874678E-2
63 55 3.3568447171825076E-2
63 54 1.9460586896261733E-1
63 53 2.6230389025408158E-2
63 52 7.921846648297874E-2
63 51 3.1399066681483796E-2
63 50 2.800296686165046E-2
63 49 2.8043605274014435E-2
64 80 2.7582547359891816E-4
64 79 2.8011546990993914E-4
64 78 2.7836020361310127E-4
64 77 2.791260185251951E-4
64 76 2.7002488488468853E-4
64 75 5.239540896649979E-3
64 74 2.699233457606477E-4
64 73 2.698614245056658E-4
64 72 2.6989007149055795E-4
64 71 2.688470050572565E-4
64 70 2.670867707636261E-4
64 69 2.6761479362555736E-4
64 68 2.66827191607525E-4
64 67 2.679287226613515E-4
65 94 2.721188248736382E-4
65 93 2.763350133671206E-4
65 92 2.7460967620223287E-4
65 91 2.7538037868930044E-4
65 90 2.775086373196243E-4
65 89 5.4350731609689095E-3
65 88 2.7738574036199795E-4
65 87 2.773758851076169E-4
65 86 2.7736659284732004E-4
65 85 2.762895520052761E-4
65 84 2.744688618586913E-4
65 83 2.750312584832459E-4
65 82 2.7421543089626004E-4
65 81 2.753452202382067E-4
66 138 1.8201075849344653E-3
66 137 5.641343153013085E-3
66 136 1.8227568988926147E-3
66 135 2.513568923251329E-3
66 134 2.2468180647243824E-3
66 133 1.4326099134235474E-2
66 132 1.8625739124576803E-3
66 131 1.8540490010033903E-3
66 130 1.8669900588474983E-3
66 129 3.3369157728038567E-3
66 128 3.362471901282185E-3
66 127 1.8391458857946405E-3
66 126 1.834827897899307E-3
66 125 1.8493064297623936E-3
66 124 1.849267273877525E-3
67 24 7.368669114075509E-3
67 23 7.372842824626161E-3
67 22 7.440379195915937E-3
67 21 7.434148680485354E-3
67 20 7.3738181068983034E-3
67 19 7.432423423302208E-3
67 18 1.2281266506685044E-2
67 17 1.4312868002358115E-2
67 16 7.484180802901976E-3
67 15 7.484021537004941E-3
67 14 3.626969408258793E-2
67 13 2.733212029804355E-2
68 38 4.564775834688082E-3
68 37 3.0900644972010304E-3
68 36 3.0902240044126117E-3
68 35 3.109981255590824E-3
68 34 3.53198627443773E-3
68 33 2.839056289404136E-2
68 32 3.05510255848172E-2
68 31 3.118085086746553E-3
68 30 5.767845296566099E-3
68 29 6.33820911734917E-3
68 28 1.2590183705690103E-2
68 27 1.1291739814782464E-2
68 26 1.0551175565374037E-2
68 25 3.1527024337222906E-3
69 57 9.858009669777097E-4
69 56 9.879914968166223E-4
69 55 9.879626526396973E-4
69 54 2.0085429728843637E-3
69 53 9.972587445122342E-4
69 52 9.85688686591515E-4
69 51 4.444711417178777E-3
69 50 3.916966488853147E-3
69 49 9.955301142894374E-4
70 66 3.973323560174817E-4
70 65 3.98162524472164E-4
70 64 3.981795363181954E-4
70 63 1.0949517624755717E-3
70 62 5.409186983941601E-4
70 61 5.478488106909275E-4
70 60 2.2613728180871525E-3
70 59 1.9444942576132525E-3
70 58 5.471963493038742E-4
71 94 6.269224610578501E-2
71 93 1.1374973235132736E-1
71 92 6.326610226798801E-2
71 91 1.6181777376388976E-1
71 90 1.225719533923634E-1
71 89 1.2237542060200093E-1
71 88 1.445368242611681E-1
71 87 1.4886753565548186E-1
71 86 1.4895714104670113E-1
71 85 2.573057896902074E-1
71 84 6.323366067750036E-2
71 83 6.33632287351752E-2
71 82 7.195905042156094E-2
71 81 2.1925785851230706E-1
72 102 7.489656677746456E-2
72 101 1.3719551342243624E-1
72 100 4.7279401134292895E-2
72 99 7.483263735169077E-2
72 98 2.091118308937781E-1
72 97 1.1896535734336292E-1
72 96 2.642005178806085E-1
72 95 4.780591668432567E-2
73 110 1.766572503406755E-1
73 109 4.7100347551617944E-1
73 108 4.736469002785825E-2
73 107 2.087856824740363E-1
73 106 7.804908618473592E-2
73 105 1.1989808013483988E-1
73 104 2.629902116698068E-1
73 103 4.781359422433588E-2
74 123 8.904258364393296E-2
74 122 1.3819689491272422E-1
74 121 3.331384612925119E-1
74 120 5.191057558867139E-2
74 119 1.4198640156390377E-1
74 118 1.6614513594177835E-1
74 117 1.4690997622413637E-1
74 116 1.449692236630833E-1
74 115 3.330517454733919E-1
74 114 5.215530996662548E-2
74 113 1.2183917099020043E-1
74 112 3.0978883510265803E-1
74 111 5.136282767638808E-2
75 138 9.816452514085895E-2
75 137 1.3834052549551193E-1
75 136 6.442918848970458E-2
75 135 3.1079087709043873E-1
75 134 5.3325869787445745E-2
75 133 1.4872311467878546E-1
75 132 1.959995005006642E-1
75 131 1.4984650149546414E-1
75 130 2.147315951982498E-1
75 129 3.73827905121856E-1
75 128 5.3854705178915184E-2
75 127 1.3647448984893668E-1
75 126 1.2099415496256415E-1
75 125 3.7192832276576054E-1
75 124 5.344723993352557E-2
76 148 1.9543250692867525E-1
76 147 2.010944870640973E-1
76 146 2.783565781595894E-1
76 145 2.0983054182722136E-1
76 144 3.920981146952079E-1
76 143 5.543495164498618E-2
76 142 1.451829595069848E-1
76 141 1.3239653668819076E-1
76 140 3.955172727541517E-1
76 139 5.506147579459026E-2
77 172 1.4333664793623883E-2
77 171 4.348227520047979E-3
77 170 1.2499565518909014E-2
77 169 7.886295917396738E-3
77 168 1.8871587762234528E-2
77 167 4.310940940271417E-3
77 166 4.331698677859849E-3
77 165 4.311016904951894E-3
77 164 4.303675902342701E-3
77 163 4.320588099488211E-3
77 162 4.263644424866544E-3
77 161 4.285352177461931E-3
78 181 2.583290697244216E-3
78 180 4.7565887205012705E-4
78 179 1.416126927110655E-3
78 178 2.2570295959989132E-3
78 177 4.7545082611566024E-4
78 176 4.655008143581277E-4
78 175 4.705605880184675E-4
78 174 4.7090909446883465E-4
78 173 4.70932735014342E-4
79 194 1.9308126731236535E-2
79 193 4.4505438277526775E-3
79 192 1.3101072151345296E-2
79 191 4.1735831446989606E-2
79 190 4.471552934290608E-3
79 189 4.433016657239973E-3
79 188 4.427474038935856E-3
79 187 4.419685050741926E-3
79 186 4.456678207392698E-3
79 185 4.45700321753918E-3
79 184 4.378315605327592E-3
79 183 4.402633215946212E-3
79 182 4.4026472574806635E-3
80 208 4.362451117751725E-3
80 207 8.785536417159564E-4
80 206 1.2938343003879923E-3
80 205 2.1386793502428704E-3
80 204 5.707047572031194E-4
80 203 8.122120323940475E-3
80 202 5.602534941084998E-4
80 201 6.728790338669498E-3
80 200 5.603947339473196E-4
81 12 7.373801124112336E-3
81 11 7.377808139562578E-3
81 10 7.445264201615736E-3
81 9 7.439145053681012E-3
81 8 7.379093141539242E-3
81 7 7.4375591414710925E-3
81 6 1.2297599926098883E-2
81 5 1.415817632589136E-2
81 4 7.489527803916484E-3
81 3 7.48924347668935E-3
81 2 3.645431934910434E-2
81 1 2.728933816865154E-2
82 38 7.518901958937987E-3
82 37 3.0881594145687674E-3
82 36 3.0883188234411656E-3
82 35 3.108063893904019E-3
82 34 3.954965632982433E-3
82 33 2.8390871747996812E-2
82 32 3.116180993688797E-3
82 31 3.007627532869064E-2
82 30 5.821159415909639E-3
82 29 6.250381297492821E-3
82 28 1.2654462187294914E-2
82 27 1.118395981453104E-2
82 26 3.1507366061299E-3
82 25 1.048837398600188E-2
83 57 9.808354207847061E-4
83 56 9.830149167765576E-4
83 55 9.82986217889704E-4
83 54 2.1425569732976147E-3
83 53 9.92235484718288E-4
83 52 9.80723705962416E-4
83 51 4.445464096844825E-3
83 50 9.905176786857602E-4
83 49 3.8628817639893972E-3
84 66 3.9715858659445253E-4
84 65 3.979883919830739E-4
84 64 3.9800539638914064E-4
84 63 1.1451412282037963E-3
84 62 5.406821328874701E-4
84 61 5.476092143673479E-4
84 60 2.2443837179042542E-3
84 59 5.469579417630261E-4
84 58 1.9594829550504934E-3
85 80 6.270195679124857E-2
85 79 1.1575768409746189E-1
85 78 6.327816365768868E-2
85 77 1.601764198670617E-1
85 76 1.1762578344952186E-1
85 75 1.1753384480566698E-1
85 74 1.3881392017292846E-1
85 73 1.4199440053586465E-1
85 72 1.443029674300397E-1
85 71 2.469934550778229E-1
85 70 6.071543335510356E-2
85 69 6.083546602011314E-2
85 68 6.897215844006833E-2
85 67 2.1006683197384154E-1
86 102 7.611559805407778E-2
86 101 4.75526654670109E-2
86 100 1.624145716625621E-1
86 99 7.705146611317114E-2
86 98 2.109168502657486E-1
86 97 1.198649452575148E-1
86 96 4.808410209422567E-2
86 95 2.6574605967843007E-1
87 110 1.8642166440194335E-1
87 109 4.761969525083521E-2
87 108 4.9114979810425896E-1
87 107 2.1160953627930695E-1
87 106 7.527357514548612E-2
87 105 1.1989683514417943E-1
87 104 4.8071496119701136E-2
87 103 2.6450291966469625E-1
88 123 8.925569287270307E-2
88 122 1.376956170306304E-1
88 121 5.193287843349692E-2
88 120 3.3182996662204606E-1
88 119 1.421671031119554E-1
88 118 1.6612544141820476E-1
88 117 1.4845778515683525E-1
88 116 1.4695837135136627E-1
88 115 5.217714827598566E-2
88 114 3.3228333150540446E-1
88 113 1.1916842654888013E-1
88 112 5.138504224575777E-2
88 111 3.139208784541175E-1
89 138 9.616727862936358E-2
89 137 1.387136269341906E-1
89 136 6.838050228794232E-2
89 135 5.3359403877907614E-2
89 134 3.1587992886815736E-1
89 133 1.4943498619248374E-1
89 132 1.949839883165855E-1
89 131 1.5172253904747401E-1
89 130 2.1589189368082734E-1
89 129 5.389152408373355E-2
89 128 3.7383661331365553E-1
89 127 1.351318531265609E-1
89 126 1.2210271827042836E-1
89 125 5.348478817128466E-2
89 124 3.724657874428378E-1
90 148 1.9753347598606427E-1
90 147 2.058344170263903E-1
90 146 2.7838678480630524E-1
90 145 2.1069610980734194E-1
90 144 5.572817697742547E-2
90 143 3.9388453422443315E-1
90 142 1.476885949329632E-1
90 141 1.3503681193077915E-1
90 140 5.535304171512361E-2
90 139 3.950192074654423E-1
91 160 1.4402337352305589E-2
91 159 4.417262102964423E-3
91 158 1.2962941497623816E-2
91 157 7.96016203789263E-3
91 156 1.9578163799331878E-2
91 155 4.5240780370721404E-3
91 154 4.54573701846772E-3
91 153 4.523250726172879E-3
91 152 4.516310268707548E-3
91 151 4.533987083361444E-3
91 150 4.474439394289304E-3
91 149 4.4970772829668135E-3
92 181 2.636612201736187E-3
92 180 4.8032773200867444E-4
92 179 1.3607999909861562E-3
92 178 4.8011427216244505E-4
92 177 2.2178662413579135E-3
92 176 4.7006996725432095E-4
92 175 4.7517940544533643E-4
92 174 4.755313326829674E-4
92 173 4.755552052737551E-4
93 194 1.921559262438016E-2
93 193 4.441251075922082E-3
93 192 1.2726153394836388E-2
93 191 4.4622117071645845E-3
93 190 4.20754550026289E-2
93 189 4.4237605022056726E-3
93 188 4.418229456908897E-3
93 187 4.410456732150874E-3
93 186 4.447372646954922E-3
93 185 4.447696978479026E-3
93 184 4.36917366629025E-3
93 183 4.393440501648736E-3
93 182 4.393454513864412E-3
94 208 4.9265825124134984E-3
94 207 8.851552193209429E-4
94 206 1.3114609165331688E-3
94 205 6.198380221196481E-4
94 204 1.9924575774331785E-3
94 203 6.78374279719267E-3
94 202 1.1371560235974684E-3
94 201 5.651569688814248E-4
94 200 9.94876973748547E-3
95 80 5.929093070156624E-3
95 79 4.144088798940394E-2
95 78 5.983579155019346E-3
95 77 9.640649615448527E-3
95 76 2.6495474864433596E-2
95 75 1.6147741854972985E-2
95 74 4.3106504479721905E-2
95 73 5.800890980307968E-3
95 72 5.801506770566166E-3
95 71 2.1853910377395543E-2
95 70 5.741247539622958E-3
95 69 5.752597820837787E-3
95 68 5.73566767437152E-3
95 67 5.759345980992692E-3
96 94 5.905618935977298E-3
96 93 4.10726836526643E-2
96 92 5.95967627206819E-3
96 91 9.79369917227737E-3
96 90 2.7157948144584165E-2
96 89 1.7117717160507594E-2
96 88 4.517436134960007E-2
96 87 6.019709515634087E-3
96 86 6.0195078517161545E-3
96 85 2.246509999209874E-2
96 84 5.956620269404417E-3
96 83 5.968825599767143E-3
96 82 5.951120221065638E-3
96 81 5.9756393087640495E-3
97 123 3.6556239459565438E-3
97 122 1.61315671573685E-2
97 121 5.109668239542856E-3
97 120 5.248991584161979E-3
97 119 1.720336392441864E-2
97 118 4.6946958637410635E-3
97 117 3.839693725335478E-2
97 116 3.9950283444107684E-2
97 115 7.1872692373899935E-3
97 114 7.157378857001239E-3
97 113 4.481131908847397E-2
97 112 2.7572169922886736E-2
97 111 2.5785334130997872E-2
98 138 1.0656149473969194E-2
98 137 5.382264894780336E-2
98 136 1.0671660362322824E-2
98 135 1.908280826425456E-2
98 134 1.8961822043492144E-2
98 133 3.73258940114707E-2
98 132 9.190390606427869E-2
98 131 1.0854865641069652E-2
98 130 1.0930631407818577E-2
98 129 5.734798691231756E-2
98 128 5.6908505812627456E-2
98 127 1.0767612654154627E-2
98 126 1.0742332212042125E-2
98 125 1.0827099398868738E-2
98 124 1.082687015364972E-2
99 148 2.1279182975017994E-2
99 147 2.9826124725831897E-2
99 146 5.220063818380817E-3
99 145 5.186419266929032E-3
99 144 9.331691271941672E-3
99 143 9.269307224581292E-3
99 142 4.10977179410514E-3
99 141 4.0959889102269945E-3
99 140 4.128029360766335E-3
99 139 4.12787788972163E-3
100 160 1.902074686570521E-5
100 159 1.9021186274689195E-5
100 158 4.0956698532926717E-4
100 157 1.9029598190970452E-5
100 156 1.957684432922293E-5
100 155 1.948114670547375E-5
100 154 1.9574412513578922E-5
100 153 1.9477584219400897E-5
100 152 1.9447697893617556E-5
100 151 1.9523816080955653E-5
100 150 1.9267397589214278E-5
100 149 1.9364878673053882E-5
101 172 1.6940683501613967E-5
101 171 1.694135362442168E-5
101 170 3.943421709721509E-4
101 169 1.694841984432929E-5
101 168 1.6879472549384008E-5
101 167 1.679607945683788E-5
101 166 1.6876954749427144E-5
101 165 1.6796375426749523E-5
101 164 1.6767773767662753E-5
101 163 1.6833666251689177E-5
101 162 1.6611805062505356E-5
101 161 1.669638175758727E-5
102 194 3.494198301529814E-4
102 193 3.480309258604983E-4
102 192 2.4657151843199767E-3
102 191 6.272638184171824E-4
102 190 6.3249692977706E-4
102 189 3.4666030743332694E-4
102 188 3.4622687667638344E-4
102 187 3.456177806023832E-4
102 186 3.485106321409719E-4
102 185 3.4853604781747615E-4
102 184 3.4238270485723406E-4
102 183 3.442843332572373E-4
102 182 3.442854313001787E-4
103 80 5.6621367394684595E-3
103 79 1.2056054623560243E-2
103 78 5.714169598329092E-3
103 77 6.430664608416409E-3
103 76 1.6835038105356234E-2
103 75 2.536099026520869E-2
103 74 4.21655350039945E-2
103 73 5.539706925259195E-3
103 72 5.540294989673684E-3
103 71 2.0591992020790147E-2
103 70 5.482748919578575E-3
103 69 5.493588156458371E-3
103 68 5.477420286739183E-3
103 67 5.500032481936955E-3
104 94 5.994631777098749E-3
104 93 1.2290235890238586E-2
104 92 6.049503896046624E-3
104 91 6.829519738644172E-3
104 90 1.995706021629211E-2
104 89 2.7213351979180133E-2
104 88 4.501466422768983E-2
104 87 6.1104419947393875E-3
104 86 6.110237291228403E-3
104 85 2.272996932010544E-2
104 84 6.046401831575864E-3
104 83 6.058791127606572E-3
104 82 6.040818883386239E-3
104 81 6.065707536693506E-3
105 123 3.656003672644467E-3
105 122 5.502606498920191E-3
105 121 3.856414087638229E-3
105 120 3.914119591441546E-3
105 119 6.025187255901739E-3
105 118 9.47582697230303E-3
105 117 3.893195588632981E-2
105 116 3.762490577751119E-2
105 115 7.156973346087988E-3
105 114 7.199131618657287E-3
105 113 4.592989528175896E-2
105 112 2.373585414734686E-2
105 111 2.6954387788909698E-2
106 138 3.4624549809561013E-3
106 137 2.580517465901197E-2
106 136 3.467494864524765E-3
106 135 7.656300551242888E-3
106 134 7.79655534644552E-3
106 133 1.2343702440253897E-2
106 132 1.9808198193967636E-2
106 131 3.527022936224957E-3
106 130 3.5516411678954687E-3
106 129 7.833670861078541E-3
106 128 7.749105719786338E-3
106 127 3.4986722134910824E-3
106 126 3.4904579525212053E-3
106 125 3.5180009753519575E-3
106 124 3.517926487728413E-3
107 148 6.00254749679485E-2
107 147 2.148563811036877E-1
107 146 1.7990971962625946E-2
107 145 1.7875015874171087E-2
107 144 7.318641525381868E-2
107 143 7.363222149801917E-2
107 142 1.4164345818950388E-2
107 141 1.411684305154308E-2
107 140 1.4227270599438843E-2
107 139 1.4226748553844527E-2
108 160 4.1052908026883004E-6
108 159 4.105385641322834E-6
108 158 5.6473662719826966E-5
108 157 4.107201204233495E-6
108 156 4.225314575597753E-6
108 155 4.204659941087844E-6
108 154 4.224789711328876E-6
108 153 4.2038910416638186E-6
108 152 4.197440608395832E-6
108 151 4.213869368875254E-6
108 150 4.158525986030332E-6
108 149 4.179565548764031E-6
109 172 4.7685285117033016E-6
109 171 4.768717140439245E-6
109 170 9.836904620378064E-5
109 169 4.770706167097833E-6
109 168 4.7512986182985135E-6
109 167 4.727824811031679E-6
109 166 4.750589898318005E-6
109 165 4.727908121776618E-6
109 164 4.7198572171703015E-6
109 163 4.738404886085609E-6
109 162 4.675954548343177E-6
109 161 4.699761520587557E-6
110 194 8.197347361493142E-5
110 193 8.164763833155989E-5
110 192 5.347239361431026E-4
110 191 1.363586776420142E-4
110 190 1.4985023503727234E-4
110 189 8.132609289028749E-5
110 188 8.122441055387672E-5
110 187 8.108151734449831E-5
110 186 8.17601768503615E-5
110 185 8.17661393376262E-5
110 184 8.032257244969602E-5
110 183 8.076869219454514E-5
110 182 8.076894979410396E-5
111 12 5.343417038875078E-4
111 11 5.346320718303297E-4
111 10 5.395202680982165E-4
111 9 5.390768447025016E-4
111 8 5.347251893601019E-4
111 7 5.389619217451014E-4
111 6 5.424539214709963E-4
111 5 5.424550941528337E-4
111 4 5.427278252692716E-4
111 3 5.427072215273953E-4
111 2 1.407376001282186E-2
111 1 5.404947923329325E-4
112 24 5.290361061293982E-4
112 23 5.293357590984276E-4
112 22 5.341845558534622E-4
112 21 5.337372338782796E-4
112 20 5.294057798209819E-4
112 19 5.336133684518215E-4
112 18 5.370703756982059E-4
112 17 5.370717974818205E-4
112 16 5.373293071298955E-4
112 15 5.3731787258063E-4
112 14 1.3934967401398402E-2
112 13 5.351298058999009E-4
113 38 1.7068784753186284E-2
113 37 2.3805828714980183E-3
113 36 2.3807057557084016E-3
113 35 2.395926724003833E-3
113 34 2.956827146171885E-3
113 33 1.2485335051091258E-1
113 32 2.0683943945221654E-2
113 31 1.9912187800576728E-2
113 30 2.4270232851286667E-3
113 29 2.4582113136799827E-3
113 28 1.6992355228496483E-2
113 27 1.3156979850286932E-2
113 26 3.737389674658519E-3
113 25 3.7266001240534204E-3
114 80 1.3589289774056365E-1
114 79 2.6181011483149882E-2
114 78 5.10386280799291E-1
114 77 1.7120607438189547E-1
114 76 8.78169291073895E-2
114 75 9.454389726026953E-2
114 74 2.5228403905010473E-2
114 73 1.914106637869983E-1
114 72 1.8544952475530338E-1
114 71 8.995446992605831E-2
114 70 2.4963283229620013E-2
114 69 2.501263492239169E-2
114 68 2.5217286808934425E-1
114 67 1.1608224935408741E-1
115 94 1.2993172097674516E-1
115 93 2.5864209078527406E-2
115 92 5.099424710793836E-1
115 91 1.6416501455748245E-1
115 90 9.077686521550135E-2
115 89 9.716939964948038E-2
115 88 2.5962554280421365E-2
115 87 1.9262526208651143E-1
115 86 1.933281456944703E-1
115 85 9.25947941320455E-2
115 84 2.5689542349913823E-2
115 83 2.5742181151292256E-2
115 82 2.6092188111362735E-1
115 81 1.197823228320388E-1
116 102 1.4725637952222292E-2
116 101 1.4739598840451387E-2
116 100 1.473990354436021E-2
116 99 1.484771322378306E-2
116 98 4.2752970554085015E-2
116 97 8.602714274783657E-2
116 96 2.639975102274103E-2
116 95 2.616602694646652E-2
117 110 2.8140088678562525E-1
117 109 6.154286064307999E-2
117 108 3.088411068377195E-1
117 107 4.1683096288301205E-2
117 106 1.4820359110374128E-2
117 105 8.474117787952842E-2
117 104 2.6148190068555677E-2
117 103 2.611920453950796E-2
118 138 1.6177580478841913E-1
118 137 2.57158064595504E-2
118 136 5.071630164227987E-1
118 135 9.462667381266272E-2
118 134 8.991414043307223E-2
118 133 1.0006551549755477E-1
118 132 2.595135955063033E-2
118 131 2.1350149595742254E-1
118 130 1.6927237861073824E-1
118 129 9.691961730908219E-2
118 128 9.745955374268445E-2
118 127 2.5624935380599914E-2
118 126 3.368112660797547E-1
118 125 1.4137756316886685E-1
118 124 1.4051480935890456E-1
119 148 3.660734140234269E-2
119 147 1.6088655411658794E-2
119 146 1.8078229090662076E-1
119 145 1.7315664790634772E-1
119 144 4.456778322700752E-2
119 143 4.378929315996708E-2
119 142 2.686716158730204E-2
119 141 3.2024279185815546E-1
119 140 1.0562809559892886E-1
119 139 1.0546159299980074E-1
120 160 2.407274986885337E-2
120 159 3.5548467490971953E-3
120 158 3.556407793762542E-3
120 157 3.426621498080938E-2
120 156 1.258052354510096E-2
120 155 3.6408082037864636E-3
120 154 3.6582385390955593E-3
120 153 3.6401424150258733E-3
120 152 3.6345569953512478E-3
120 151 3.6487826323277415E-3
120 150 3.600860887142576E-3
120 149 3.619079010291225E-3
121 172 2.398419295835524E-2
121 171 3.529301438473472E-3
121 170 3.5307836876779363E-3
121 169 3.435489709194546E-2
121 168 1.1998893709942022E-2
121 167 3.4990372494368037E-3
121 166 3.5158855658582724E-3
121 165 3.4990989072628586E-3
121 164 3.4931404768566744E-3
121 163 3.5068675050395825E-3
121 162 3.4606483521025266E-3
121 161 3.4782677618752874E-3
122 181 2.7105794158612737E-2
122 180 4.672853981874857E-3
122 179 2.151546418413931E-2
122 178 9.586233041002899E-3
122 177 9.582575394072966E-3
122 176 4.5730616241089084E-3
122 175 4.622768640808079E-3
122 174 4.626192354418819E-3
122 173 4.626424598204647E-3
123 208 2.040848416552746E-2
123 207 1.6624825014942154E-3
123 206 6.784613335252896E-3
123 205 2.7143586996532655E-3
123 204 2.5016684293141145E-3
123 203 9.54988811210416E-3
123 202 1.5158644218815837E-3
123 201 4.6518434533776775E-3
123 200 7.843426354585835E-3
124 12 2.437800829664336E-3
124 11 2.4391255610240054E-3
124 10 2.4614267380250157E-3
124 9 2.459403729313358E-3
124 8 2.439550386542365E-3
124 7 2.4588794219668427E-3
124 6 3.0004131034757645E-2
124 5 2.4748161503407957E-3
124 4 2.476060418076386E-3
124 3 2.4759664186399305E-3
124 2 2.5236241221205668E-2
124 1 5.703476045524878E-3
125 24 2.4562785667486837E-3
125 23 2.457669835051096E-3
125 22 2.4801824677540872E-3
125 21 2.478105582325387E-3
125 20 2.4579949364913305E-3
125 19 2.4775304835965004E-3
125 18 3.0541573758596365E-2
125 17 2.4935877337587983E-3
125 16 2.4947833334956963E-3
125 15 2.4947302436631575E-3
125 14 2.524772984083568E-2
125 13 5.785817573602494E-3
126 38 3.1440558821921798E-3
126 37 3.147222738909841E-3
126 36 3.1473851965943857E-3
126 35 3.16750790607917E-3
126 34 3.164640203059597E-3
126 33 5.557239407478164E-3
126 32 3.1757802513784888E-3
126 31 3.328306152642017E-3
126 30 2.0039484266973096E-2
126 29 3.2086768892288626E-3
126 28 3.1903418249212816E-3
126 27 2.4005183908302235E-2
126 26 5.0712872122206055E-3
126 25 5.0779405755352084E-3
127 66 2.647373022486358E-3
127 65 2.6529043252805067E-3
127 64 2.653017672964288E-3
127 63 1.3520563062118443E-2
127 62 3.604069861917133E-3
127 61 3.650244285065434E-3
127 60 1.8221204355428625E-2
127 59 6.307300716186278E-3
127 58 6.329335276956579E-3
128 80 4.638926885812229E-1
128 79 4.308877218626366E-1
128 78 8.46056009000012E-2
128 77 3.2073789092504246E-1
128 76 3.597058551990172E-1
128 75 5.1699939977219694E-2
128 74 1.8801321258369944E-1
128 73 2.2377927302162923E-1
128 72 1.3848002738293916E-1
128 71 1.4358770255093398E-1
128 70 5.523512392907365E-1
128 69 5.1237851294531955E-2
128 68 1.8851107357616864E-1
128 67 1.8473705080197475E-1
129 94 4.6641889578642426E-1
129 93 4.331762424821763E-1
129 92 8.418492772757913E-2
129 91 3.2482505681856727E-1
129 90 3.733872058677863E-1
129 89 5.3853795328348844E-2
129 88 1.9551012552901934E-1
129 87 2.283516760644482E-1
129 86 1.4697498714875648E-1
129 85 1.4943921742692468E-1
129 84 5.747947349929298E-1
129 83 5.3373889664650676E-2
129 82 1.9726415057019256E-1
129 81 1.927940511156576E-1
130 102 5.467543014137709E-1
130 101 4.8875500074271166E-1
130 100 5.054359631476667E-1
130 99 5.495184972081381E-1
130 98 8.480288979186562E-2
130 97 3.877576900250816E-1
130 96 3.6085321475731413E-1
130 95 3.6134373750991255E-1
131 110 2.8103839025339777E-2
131 109 2.8128894283868004E-2
131 108 2.8124730052574255E-2
131 107 2.0084999473688175E-1
131 106 2.826680008897161E-2
131 105 2.8095291731391036E-2
131 104 4.575133418739689E-2
131 103 4.775345089889284E-2
132 123 4.869202867817897E-1
132 122 3.6434966280640746E-1
132 121 2.8565685031735294E-1
132 120 2.8827019873655146E-1
132 119 3.5889452272480915E-1
132 118 5.214253559108736E-2
132 117 2.0942189480743967E-1
132 116 7.757558732310173E-2
132 115 1.6593247821072585E-1
132 114 1.65774384451967E-1
132 113 1.5486197829084006E-1
132 112 1.348993806404264E-1
132 111 1.3168195952053516E-1
133 148 3.515525903816865E-1
133 147 1.2544773026291522E-1
133 146 1.5675118537588503E-1
133 145 2.9683212968085965E-1
133 144 1.289261300646959E-1
133 143 1.2813673548917176E-1
133 142 3.865748164009161E-1
133 141 1.1496278239545402E-1
133 140 1.5143860082426228E-1
133 139 1.529702716607871E-1
134 160 3.570983420077246E-2
134 159 1.906540497626047E-3
134 158 1.639324001250015E-2
134 157 2.9154335232953374E-3
134 156 5.226579343403223E-3
134 155 1.9526434680681786E-3
134 154 1.961991730454576E-3
134 153 1.9522863912869498E-3
134 152 1.949290811010918E-3
134 151 1.9569203249997E-3
134 150 1.931218866016795E-3
134 149 1.9409896359051057E-3
135 172 3.595767127806984E-2
135 171 1.8840128156337337E-3
135 170 1.5960597836222796E-2
135 169 2.9060993248022976E-3
135 168 5.111644365506587E-3
135 167 1.8678571766230555E-3
135 166 1.8768511502502074E-3
135 165 1.8678900908233574E-3
135 164 1.8647093596101097E-3
135 163 1.8720371261576876E-3
135 162 1.8473644032466028E-3
135 161 1.8567700021716244E-3
136 181 2.287025785008536E-3
136 180 9.155195725483153E-5
136 179 9.093707933067807E-5
136 178 1.3958241270794008E-4
136 177 1.366954799379985E-4
136 176 8.959679543980701E-5
136 175 9.057067022505802E-5
136 174 9.063774864936981E-5
136 173 9.064229883930412E-5
137 194 8.629974246306321E-2
137 193 6.294561269889363E-3
137 192 2.5734141342063276E-2
137 191 2.426571184588983E-2
137 190 2.46910873767903E-2
137 189 6.269771973805578E-3
137 188 6.261932853046152E-3
137 187 6.2509166120395115E-3
137 186 6.303237339599335E-3
137 185 6.303697012924561E-3
137 184 6.192406344768791E-3
137 183 6.226799600042835E-3
137 182 6.22681945948077E-3
138 208 4.2164792262613014E-2
138 207 4.792938945446449E-3
138 206 5.624277462494187E-3
138 205 4.911017363679341E-3
138 204 4.548281034691196E-3
138 203 8.454268131540514E-2
138 202 1.070567643705879E-2
138 201 3.5580835471379274E-2
138 200 3.1119878616478084E-2
139 12 2.1992636831409617E-3
139 11 2.200458790441684E-3
139 10 2.2205778125015683E-3
139 9 2.218752753810929E-3
139 8 2.2008420470731654E-3
139 7 2.2182797495802456E-3
139 6 2.2326522533972332E-3
139 5 3.538734815530062E-2
139 4 2.2337795969525624E-3
139 3 2.233694795296776E-3
139 2 1.782437549242405E-2
139 1 4.407487205657799E-3
140 24 2.2359033753428315E-3
140 23 2.237169820254855E-3
140 22 2.2576626389969497E-3
140 21 2.2557720899350087E-3
140 20 2.237465753874677E-3
140 19 2.2552485885673386E-3
140 18 2.269859187128044E-3
140 17 3.634545760266018E-2
140 16 2.2709535276756727E-3
140 15 2.270905201017053E-3
140 14 1.7697202683850805E-2
140 13 4.55048275607538E-3
141 38 2.229264677180367E-3
141 37 2.23151010858582E-3
141 36 2.2316252977526993E-3
141 35 2.2458931247711918E-3
141 34 2.667017993976965E-3
141 33 2.231382324164948E-3
141 32 2.2517585571503237E-3
141 31 2.2517453589749317E-3
141 30 2.2750424105713774E-3
141 29 1.7488589390563036E-2
141 28 1.5329605846038551E-2
141 27 2.2623810873279443E-3
141 26 3.4027994953122723E-3
141 25 3.4104192362003727E-3
142 57 5.483316327738736E-3
142 56 5.495500702104824E-3
142 55 5.49534026226799E-3
142 54 2.4222387916109867E-2
142 53 5.54704787268464E-3
142 52 5.482691791046715E-3
142 51 2.8917152035541325E-2
142 50 1.012919471542769E-2
142 49 1.008305270038391E-2
143 80 4.078048050308834E-2
143 79 4.1414751546430435E-2
143 78 4.115523743389415E-2
143 77 4.126846229193257E-2
143 76 3.9922870102277255E-2
143 75 2.777231670386732E-1
143 74 1.352523004078466E-1
143 73 1.1537647595326342E-1
143 72 1.763662337587511E-1
143 71 1.1073200255198827E-1
143 70 3.94884732930686E-2
143 69 5.373798496144526E-1
143 68 1.2900875861321615E-1
143 67 1.5004308692827845E-1
144 94 4.1056957583862894E-2
144 93 4.16930909797162E-2
144 92 4.143277420512498E-2
144 91 4.154905685971899E-2
144 90 4.187016593533429E-2
144 89 2.901734956401743E-1
144 88 1.4258403083287977E-1
144 87 1.3100427689560284E-1
144 86 1.8250664761439403E-1
144 85 1.1632475913750918E-1
144 84 4.141152830810675E-2
144 83 5.595054747439767E-1
144 82 1.3443114103172776E-1
144 81 1.5624725132741035E-1
145 102 2.464904015523047E-2
145 101 2.467240909148153E-2
145 100 2.467291913110823E-2
145 99 2.485338025108404E-2
145 98 1.8628591751823315E-1
145 97 2.4685051363090994E-2
145 96 4.211660757331122E-2
145 95 4.1066505014988285E-2
146 110 8.30053552747845E-2
146 109 8.307935657523893E-2
146 108 8.306705741932388E-2
146 107 8.408819971521948E-2
146 106 5.459257793976902E-1
146 105 3.727077753516591E-1
146 104 3.61908025336327E-1
146 103 3.593911715493896E-1
147 123 1.9029688718244692E-2
147 122 1.919422578376163E-2
147 121 1.9311787671274925E-2
147 120 1.9312269464978635E-2
147 119 1.932711095329864E-2
147 118 9.065077631818175E-2
147 117 3.436849627367653E-2
147 116 1.049876153936445E-1
147 115 4.026185621447763E-2
147 114 4.037038321986648E-2
147 113 7.578030915543067E-2
147 112 5.860986753387181E-2
147 111 6.0058338551968876E-2
148 138 9.922883889279993E-2
148 137 2.4371037216810473E-1
148 136 4.880753903481455E-2
148 135 1.3660304767593992E-1
148 134 1.3619927063458948E-1
148 133 1.9971715888863448E-1
148 132 1.1953876247688454E-1
148 131 1.454235699987246E-1
148 130 9.402556885076496E-2
148 129 9.524047679165862E-2
148 128 9.503808199939973E-2
148 127 3.8369746649352804E-1
148 126 7.159640019825858E-2
148 125 1.1368791906105968E-1
148 124 1.1298919522601253E-1
149 24 1.771861536251913E-5
149 23 1.7728651417977262E-5
149 22 1.789104858459423E-5
149 21 1.7876066760235492E-5
149 20 1.773099657029479E-5
149 19 1.7871918227039558E-5
149 18 1.7987701216129425E-5
149 17 1.7987748834877376E-5
149 16 1.7996373415229295E-5
149 15 1.7995990446320496E-5
149 14 2.3341736477092823E-4
149 13 1.7922707145891284E-5
150 38 1.3277096692429649E-5
150 37 1.329047007522784E-5
150 36 1.3291156121044756E-5
150 35 1.3376132714831272E-5
150 34 1.3364022634189356E-5
150 33 1.3289709014359172E-5
150 32 1.341106616783836E-5
150 31 1.3410987561895943E-5
150 30 1.3549740582055833E-5
150 29 2.9949508454095946E-5
150 28 1.0472894562984071E-4
150 27 1.3474332033812115E-5
150 26 4.5460347422816544E-5
150 25 1.355987792146014E-5
151 94 6.214144964715803E-3
151 93 6.310426456851574E-3
151 92 6.271026407036561E-3
151 91 6.288626280847308E-3
151 90 6.3372275037042024E-3
151 89 2.7574066297249653E-2
151 88 2.777648958771701E-2
151 87 6.803014558833616E-3
151 86 8.889205906568269E-3
151 85 1.8816120321708492E-2
151 84 6.267810750257633E-3
151 83 6.28065372117033E-3
151 82 7.073813698424708E-3
151 81 8.667257073678847E-3
152 102 2.1764746842406504E-4
152 101 2.178538127596974E-4
152 100 2.1785831633601711E-4
152 99 2.1945176199006107E-4
152 98 8.695955849527394E-4
152 97 2.1796544219409325E-4
152 96 4.6186214190007974E-4
152 95 2.2028444248192706E-4
153 110 4.241280550356737E-5
153 109 4.245061755500423E-5
153 108 4.2444333120633016E-5
153 107 4.296610077579108E-5
153 106 4.265873759456175E-5
153 105 4.6018540993606215E-4
153 104 1.0863560149784119E-4
153 103 4.284660407909047E-5
154 123 1.016464391751537E-2
154 122 1.025253083500389E-2
154 121 1.0315326119915614E-2
154 120 1.0315583468394215E-2
154 119 1.0323510999223144E-2
154 118 7.478189823131179E-2
154 117 1.1577301933423718E-2
154 116 2.172902561308281E-2
154 115 8.795222078124458E-2
154 114 1.0364216678000195E-2
154 113 1.569684111821595E-2
154 112 2.9741175943052364E-2
154 111 1.0206735911904583E-2
155 138 3.4699687902250344E-2
155 137 8.924194033746249E-3
155 136 2.7029179723029382E-3
155 135 5.093070467534478E-2
155 134 2.736002340601973E-3
155 133 7.54697953373999E-3
155 132 6.096955979916248E-3
155 131 5.400894316903674E-3
155 130 3.544269566023402E-3
155 129 9.606778829869744E-3
155 128 2.763135416435912E-3
155 127 3.7122167064030077E-3
155 126 4.30928285186925E-3
155 125 6.2104455506804546E-3
155 124 2.742229505861109E-3
156 172 2.3201839928882018E-1
156 171 2.2985008717347413E-1
156 170 2.0429877836486923E-1
156 169 2.0393711971388462E-1
156 168 3.6781992762921434E-1
156 167 1.5336266452476605E-1
156 166 2.0198216226970203E-1
156 165 1.0150078916478682E-1
156 164 1.0132794884090919E-1
156 163 3.8070687698910755E-1
156 162 1.0038542723989319E-1
156 161 1.0089652568093496E-1
157 181 2.651645629632293E-1
157 180 2.7409057877730103E-1
157 179 1.9919380488183872E-1
157 178 5.111991165503438E-1
157 177 7.64366650806267E-2
157 176 1.0610437135633942E-1
157 175 1.9408988985448633E-1
157 174 4.49747419650576E-1
157 173 7.57103064387948E-2
158 194 2.6370705569303377E-1
158 193 2.1824329622954688E-1
158 192 1.9866429850861603E-1
158 191 5.119072291315296E-1
158 190 7.643576494495354E-2
158 189 2.2573956920099827E-1
158 188 2.0494283924586842E-1
158 187 2.020741720675716E-1
158 186 5.839691648607653E-1
158 185 7.61870552134642E-2
158 184 1.6975338292121048E-1
158 183 4.064246756410156E-1
158 182 7.525790611304117E-2
159 199 1.9466578245271654E-1
159 198 1.659862867100175E-1
159 197 2.589433377720556E-1
159 196 4.71877963717572E-1
159 195 7.427289720241775E-2
160 208 2.0060325277422061E-1
160 207 2.4609467842429422E-1
160 206 2.4539304314212235E-1
160 205 4.882296521726562E-1
160 204 7.267097878952812E-2
160 203 1.759027108867985E-1
160 202 1.5810643991145312E-1
160 201 4.3494715459219224E-1
160 200 7.135814676581484E-2
161 12 1.658288073865644E-5
161 11 1.659189208276661E-5
161 10 1.674359346625918E-5
161 9 1.672983216476545E-5
161 8 1.659478191314978E-5
161 7 1.6726265619832053E-5
161 6 1.6834637125504625E-5
161 5 1.683467351877678E-5
161 4 1.684313751764624E-5
161 3 1.6842498096482184E-5
161 2 2.2508203269437947E-4
161 1 1.6773837070761044E-5
162 38 1.2471521823587826E-5
162 37 1.2484083789451788E-5
162 36 1.2484728210109093E-5
162 35 1.2564548932097731E-5
162 34 1.2553173618766077E-5
162 33 1.24833689052077E-5
162 32 1.2597362831976882E-5
162 31 1.7362753408206014E-4
162 30 1.2727623311609646E-5
162 29 3.7431168300271466E-5
162 28 1.0429743616916942E-4
162 27 1.2656790103349378E-5
162 26 1.2737056126006781E-5
162 25 2.8733689020509333E-5
163 80 6.36739637095517E-3
163 79 6.466430396296596E-3
163 78 6.425910294571701E-3
163 77 6.443589035510547E-3
163 76 6.233490509953744E-3
163 75 2.6683123375066863E-2
163 74 2.799406893601902E-2
163 73 6.641653386416596E-3
163 72 8.786228184252011E-3
163 71 1.841474437130603E-2
163 70 6.165664514958411E-3
163 69 6.1778538563233495E-3
163 68 6.79913465474089E-3
163 67 8.416125495639925E-3
164 102 1.8475444371528546E-4
164 101 1.8492960326673625E-4
164 100 1.849334262183364E-4
164 99 1.8628605470299135E-4
164 98 7.499873510679915E-4
164 97 1.850243621637884E-4
164 96 1.8699632999313648E-4
164 95 4.623540332710559E-4
165 110 6.490026119978132E-5
165 109 6.495812136690808E-5
165 108 6.494850489784074E-5
165 107 6.574691605464355E-5
165 106 6.52765875652136E-5
165 105 2.74569056600287E-4
165 104 6.557442383417246E-5
165 103 4.300748480468754E-4
166 123 1.0136746202741433E-2
166 122 1.0224391907239477E-2
166 121 1.0287014845243447E-2
166 120 1.0287271487407641E-2
166 119 1.0295177260465641E-2
166 118 7.493086598347928E-2
166 117 1.1991222298482663E-2
166 116 2.1927520553922872E-2
166 115 1.0335400522520025E-2
166 114 8.76461489131611E-2
166 113 1.5671801876299393E-2
166 112 1.0178497867829015E-2
166 111 2.906299201085399E-2
167 138 3.5864063554908274E-2
167 137 8.929369052598633E-3
167 136 2.709019848511489E-3
167 135 2.7420350699036227E-3
167 134 5.046405642523613E-2
167 133 7.589410829240536E-3
167 132 6.338840681395417E-3
167 131 5.487008570870293E-3
167 130 3.5257704041666213E-3
167 129 2.769379683218974E-3
167 128 9.550125090897744E-3
167 127 3.52124644895196E-3
167 126 4.428610885587503E-3
167 125 2.748478322726342E-3
167 124 6.490842411313147E-3
168 160 2.320612591732474E-1
168 159 2.305138830552434E-1
168 158 2.039037366471881E-1
168 157 2.0414447081102435E-1
168 156 3.799809855350404E-1
168 155 1.5717998660655072E-1
168 154 2.1009164152041657E-1
168 153 1.0482102731911619E-1
168 152 1.0466019036232957E-1
168 151 3.883012779838673E-1
168 150 1.0368988198524264E-1
168 149 1.042144884886544E-1
169 181 2.6257130079268975E-1
169 180 2.728774661832772E-1
169 179 1.9855487839956873E-1
169 178 7.630537037245427E-2
169 177 5.119418642462042E-1
169 176 1.0781225048928672E-1
169 175 1.9497649406593395E-1
169 174 7.557699607772436E-2
169 173 4.4784197672024134E-1
170 194 2.640062118349132E-1
170 193 2.1818399985458564E-1
170 192 1.9866878008167496E-1
170 191 7.630559040941684E-2
170 190 5.096994417128105E-1
170 189 2.2378759672310503E-1
170 188 1.8233115047686196E-1
170 187 1.8538804618206073E-1
170 186 7.605183659298516E-2
170 185 5.831236403126767E-1
170 184 1.5724410380783055E-1
170 183 7.512957551267214E-2
170 182 4.2791586772735374E-1
171 199 1.9771403597883913E-1
171 198 1.6609800028674543E-1
171 197 2.5925900168017463E-1
171 196 7.433573678496115E-2
171 195 4.7286925152348536E-1
172 208 2.0118298908455606E-1
172 207 2.4673580304083712E-1
172 206 2.460624630879387E-1
172 205 7.830215768803526E-2
172 204 4.5318771023684906E-1
172 203 1.7698298001389273E-1
172 202 1.5987479075523076E-1
172 201 7.139447487347456E-2
172 200 4.129133793955083E-1
173 80 5.35565325694937E-4
173 79 5.438951338216619E-4
173 78 5.404869650485548E-4
173 77 5.419739339911477E-4
173 76 5.243024276622624E-4
173 75 1.032262958526842E-3
173 74 1.760619044279806E-2
173 73 5.239850396052883E-4
173 72 5.240406629369326E-4
173 71 5.220153597378348E-4
173 70 5.185975446953475E-4
173 69 5.196227971215821E-4
173 68 5.18093524550047E-4
173 67 5.202323474437713E-4
174 94 4.954722755603064E-4
174 93 5.031490855275218E-4
174 92 5.000076022744148E-4
174 91 5.014108926025451E-4
174 90 5.052860127712327E-4
174 89 9.597114403338375E-4
174 88 1.690010841081019E-2
174 87 5.050442983635672E-4
174 86 5.050273790734133E-4
174 85 5.03066309760672E-4
174 84 4.997512083874485E-4
174 83 5.007752166877375E-4
174 82 4.992897628563958E-4
174 81 5.013468763119534E-4
175 123 1.0024343850638082E-2
175 122 1.0111017686733753E-2
175 121 1.0172946223853407E-2
175 120 1.0173200020214586E-2
175 119 1.0181018129295493E-2
175 118 5.445630283641665E-2
175 117 1.8053272866028012E-2
175 116 5.932349510477691E-2
175 115 2.243281768957308E-2
175 114 2.2464176455845582E-2
175 113 4.51257709750425E-2
175 112 3.350737953999846E-2
175 111 3.171632538606913E-2
176 138 9.76096177841856E-5
176 137 9.89803766960743E-5
176 136 9.775169648600837E-5
176 135 9.894301071824463E-5
176 134 9.894820084224049E-5
176 133 9.949914350022316E-5
176 132 9.574796673283456E-4
176 131 9.942984460866812E-5
176 130 1.0012385397401664E-4
176 129 1.1031032420106272E-4
176 128 1.1031743465288743E-4
176 127 9.863061307347722E-5
176 126 9.839904591143201E-5
176 125 9.917550768376341E-5
176 124 9.917340781286146E-5
177 160 2.2358570291539734E-1
177 159 2.0622577378687565E-1
177 158 4.2349182363462595E-1
177 157 5.7310591222627744E-2
177 156 1.7447519860578742E-1
177 155 7.716466778625346E-2
177 154 4.7516381013822134E-1
177 153 5.865977074240386E-2
177 152 5.856976342943137E-2
177 151 1.340639518157344E-1
177 150 5.802676105285599E-2
177 149 5.832034048064028E-2
178 172 2.2234968746453365E-1
178 171 2.0783986873106983E-1
178 170 4.237299279885942E-1
178 169 5.7261132809169356E-2
178 168 1.6850610096916316E-1
178 167 7.522277461326782E-2
178 166 4.620062004746688E-1
178 165 5.674744270307721E-2
178 164 5.665081048517294E-2
178 163 1.3031920092624036E-1
178 162 5.6123861965952725E-2
178 161 5.6409608803364625E-2
179 194 1.505660502043829E-1
179 193 2.0134448978368777E-1
179 192 2.885328356521477E-1
179 191 1.1583970619986858E-1
179 190 1.1598065985200462E-1
179 189 1.318484905398476E-1
179 188 4.2230217235425044E-1
179 187 4.551225343969903E-1
179 186 1.1094654718511786E-1
179 185 1.1318135291531688E-1
179 184 5.049225619580225E-1
179 183 3.4979957626010444E-1
179 182 3.462731389273977E-1
180 199 2.4974947462991345E-1
180 198 5.170372925384208E-1
180 197 7.1063212789849E-2
180 196 2.4662985602669993E-1
180 195 2.460348219103023E-1
181 208 1.4027416491248315E-1
181 207 3.899278715446113E-1
181 206 5.99918790885704E-2
181 205 1.8921420872874722E-1
181 204 1.7591121291398823E-1
181 203 1.596509842935604E-1
181 202 3.935924410651656E-1
181 201 1.675278605052649E-1
181 200 1.7327745563827315E-1
182 12 7.718066950965068E-5
182 11 7.722261044757129E-5
182 10 7.792866475309394E-5
182 9 7.786461638421587E-5
182 8 7.723606040522689E-5
182 7 7.78480168361558E-5
182 6 7.835240358869875E-5
182 5 7.835257297163982E-5
182 4 7.839196643467975E-5
182 3 7.838899041656092E-5
182 2 2.028909412345849E-3
182 1 7.80694256788116E-5
183 24 7.587114610047265E-5
183 23 7.591412050983577E-5
183 22 7.660950549915962E-5
183 21 7.654535329756164E-5
183 20 7.592416245670751E-5
183 19 7.65275892701943E-5
183 18 7.702337225895814E-5
183 17 7.702357616253124E-5
183 16 7.706050663269201E-5
183 15 7.70588667590655E-5
183 14 2.0887609477790088E-3
183 13 7.674506752138064E-5
184 38 3.411476564330256E-4
184 37 3.414912781076938E-4
184 36 3.4150890567553253E-4
184 35 3.4369233225541577E-4
184 34 1.047475638266504E-3
184 33 9.978166028780174E-4
184 32 6.493974008891046E-4
184 31 1.4108050191689596E-3
184 30 3.481530903875581E-4
184 29 1.064734892859488E-3
184 28 5.308797488770965E-3
184 27 3.462155094461593E-4
184 26 5.211325159652614E-4
184 25 5.420897716991946E-4
185 80 4.849388575694345E-3
185 79 4.924812570545115E-3
185 78 4.893952591529674E-3
185 77 4.907416663710347E-3
185 76 4.747406303078038E-3
185 75 4.657186368843292E-2
185 74 4.745621106585181E-3
185 73 1.102896554985255E-2
185 72 3.668739639347451E-2
185 71 1.4127330104035572E-2
185 70 4.695750243661696E-3
185 69 4.7050336068005134E-3
185 68 3.5186647096545426E-2
185 67 1.6498772505568218E-2
186 94 4.775914083458313E-3
186 93 4.849911735086744E-3
186 92 4.8196306177538005E-3
186 91 4.833157094151938E-3
186 90 4.87050982184553E-3
186 89 4.8307029672739324E-2
186 88 4.868352876948336E-3
186 87 1.102597047400264E-2
186 86 3.7842843623783165E-2
186 85 1.4214573519512226E-2
186 84 4.817159207674819E-3
186 83 4.827029741111626E-3
186 82 3.661198224752517E-2
186 81 1.6711128742636316E-2
187 102 3.045120718953594E-3
187 101 3.048007696763272E-3
187 100 3.048070706609698E-3
187 99 3.07036471448762E-3
187 98 1.2609678085353385E-2
187 97 3.049569511867234E-3
187 96 4.061130009853466E-3
187 95 4.101409210660233E-3
188 110 6.772596219324772E-4
188 109 6.778634154178778E-4
188 108 6.777630638001112E-4
188 107 6.860947966499748E-4
188 106 6.811867348171438E-4
188 105 1.339218465291689E-2
188 104 1.6138203765000204E-3
188 103 1.4735891612658743E-3
189 138 8.483657325856866E-2
189 137 6.9147058726879715E-3
189 136 6.828871058275355E-3
189 135 2.352367593658587E-2
189 134 2.4085179052586995E-2
189 133 3.6403820238729435E-2
189 132 6.9780435846427645E-3
189 131 4.40930398829541E-2
189 130 1.7874826090130948E-2
189 129 1.3103403461848413E-2
189 128 1.3093682129902895E-2
189 127 2.147798858557114E-2
189 126 4.7293583323340556E-2
189 125 2.3872465327473884E-2
189 124 2.4634378799024744E-2
190 160 2.2326658287736806E-1
190 159 2.4500027517227246E-1
190 158 5.7263196367881006E-2
190 157 4.22315368753318E-1
190 156 1.7401783129136356E-1
190 155 3.2752977248571463E-1
190 154 5.890281541733853E-2
190 153 7.290254361362295E-1
190 152 6.958316727927797E-1
190 151 2.4279565115187968E-1
190 150 6.682816200833123E-1
190 149 7.071683437104133E-1
191 172 2.24300657563908E-1
191 171 2.4456768556462466E-1
191 170 5.730438160954452E-2
191 169 4.220498620208343E-1
191 168 1.687886255345604E-1
191 167 3.114119668097345E-1
191 166 5.706258609513821E-2
191 165 7.025833617975342E-1
191 164 6.78461588149432E-1
191 163 2.2822917444683016E-1
191 162 6.436926555919348E-1
191 161 6.883740541288226E-1
192 181 1.505440561433613E-1
192 180 1.401743169496919E-1
192 179 2.885351794066538E-1
192 178 1.1598076566731215E-1
192 177 1.1585474220821661E-1
192 176 6.160537387292249E-2
192 175 2.393618226806546E-1
192 174 1.4728018397277265E-1
192 173 1.3420069771146179E-1
193 199 4.4637984367947234E-2
193 198 3.70995030492228E-2
193 197 2.82275788727308E-1
193 196 8.523780436604016E-2
193 195 8.498276719855449E-2
194 208 2.2296830547850613E-1
194 207 6.014189469521434E-2
194 206 3.8978858021770996E-1
194 205 1.8974175059138085E-1
194 204 1.7632416984395957E-1
194 203 1.3148541268152017E-1
194 202 5.4837845421581655E-2
194 201 9.871962812763103E-2
194 200 1.0069246662209551E-1
195 160 1.2428950509023579E-1
195 159 1.7304286071886964E-2
195 158 7.638959768895343E-2
195 157 6.482589940786396E-2
195 156 6.369419763688244E-2
195 155 1.7722729315179077E-2
195 154 1.7807576716433182E-2
195 153 1.7719488388075924E-2
195 152 1.7692299677365454E-2
195 151 1.7761547245311548E-2
195 150 1.7528273732758923E-2
195 149 1.7616955928338004E-2
196 172 1.246992508185304E-1
196 171 1.742412363009278E-2
196 170 7.666699298160314E-2
196 169 6.562520481538477E-2
196 168 6.196037890974219E-2
196 167 1.7274709651000225E-2
196 166 1.7357889609812008E-2
196 165 1.7275014055031068E-2
196 164 1.7245597347547006E-2
196 163 1.731336753955311E-2
196 162 1.708518407353504E-2
196 161 1.717217091201338E-2
197 181 1.6448900705778996E-1
197 180 2.2256081559508777E-2
197 179 8.254141642867403E-2
197 178 8.870122797590983E-2
197 177 8.848389529622831E-2
197 176 2.178078597739356E-2
197 175 2.201753281819528E-2
197 174 2.203383943715932E-2
197 173 2.203494557842954E-2
198 194 7.217029856387548E-2
198 193 1.1585744059778873E-2
198 192 4.83044548654409E-2
198 191 2.7909785817104835E-2
198 190 2.787701429661401E-2
198 189 1.154011698149104E-2
198 188 1.1525688327470805E-2
198 187 1.150541187875081E-2
198 186 1.1601713198658398E-2
198 185 1.160255927152493E-2
198 184 1.139771811704091E-2
198 183 1.1461022203839434E-2
198 182 1.1461058757040718E-2
199 208 1.2241416669394324E-1
199 207 2.314647461844228E-2
199 206 1.632494984532161E-2
199 205 1.7637683876970747E-2
199 204 1.64327837993664E-2
199 203 1.315117758212512E-1
199 202 1.0781310968530404E-1
199 201 6.845210386551251E-2
199 200 8.163394346540263E-2
200 80 3.1335656088686374E-4
200 79 3.1823028945405775E-4
200 78 3.162361871579894E-4
200 77 3.171062051588596E-4
200 76 3.0676669626379687E-4
200 75 6.98020493908687E-3
200 74 3.592987524425881E-3
200 73 3.0658099411836595E-4
200 72 3.0661353904813064E-4
200 71 3.0542854439897377E-4
200 70 3.034287981195231E-4
200 69 3.040286681240066E-4
200 68 3.031338984839948E-4
200 67 3.0438531293181003E-4
201 94 3.049335704045547E-4
201 93 3.096581880836631E-4
201 92 3.0772479291305997E-4
201 91 3.0858843423302497E-4
201 90 3.109733390744681E-4
201 89 7.2293204557077806E-3
201 88 3.5361087322470773E-3
201 87 3.1082457830422256E-4
201 86 3.108141654924269E-4
201 85 3.096072445468125E-4
201 84 3.0756699780072166E-4
201 83 3.081972137028686E-4
201 82 3.072830056577264E-4
201 81 3.08549036032526E-4
202 123 1.6776638123519082E-3
202 122 1.692169455859555E-3
202 121 1.7025337517402198E-3
202 120 1.7025762268365653E-3
202 119 1.7038846574811528E-3
202 118 3.7367814341332725E-2
202 117 1.6923808512037519E-3
202 116 1.6923864047998808E-3
202 115 4.7697212706549995E-3
202 114 4.755487298336384E-3
202 113 1.6756897009202762E-3
202 112 1.6845738460275989E-3
202 111 1.684611051856759E-3
203 138 9.193063887008908E-2
203 137 1.4588127724167694E-2
203 136 1.4018323136531295E-3
203 135 1.5706443997232675E-2
203 134 1.6797386119932187E-2
203 133 2.7408337651003097E-3
203 132 4.710313094546168E-3
203 131 1.4258982107168952E-3
203 130 1.4358508231962369E-3
203 129 1.981797724859468E-3
203 128 1.9542019553503184E-3
203 127 1.4144366337581612E-3
203 126 1.4111157877554285E-3
203 125 1.4222508293137745E-3
203 124 1.4222207155971775E-3
204 160 2.7230108258345848E-2
204 159 1.9546249563236961E-1
204 158 1.1011213590171973E-1
204 157 1.107289852979995E-1
204 156 1.0133799984686619E-1
204 155 3.352660585230351E-1
204 154 1.5770478315620232E-1
204 153 2.7884116783111975E-2
204 152 2.7841331508050467E-2
204 151 1.3533066919545073E-1
204 150 2.7583213525482386E-2
204 149 2.7722767481214758E-2
205 172 2.7229424077725824E-2
205 171 1.9473927411452932E-1
205 170 1.1076036101411163E-1
205 169 1.101383109955768E-1
205 168 9.81489474289315E-2
205 167 3.283338688359482E-1
205 166 1.5225459138297978E-1
205 165 2.699747205713883E-2
205 164 2.6951499490298417E-2
205 163 1.3264652197793042E-1
205 162 2.6700804881950417E-2
205 161 2.6836748316420377E-2
206 181 2.7823484298026266E-2
206 180 1.9024454338325647E-1
206 179 1.0640372623672588E-1
206 178 1.0041019748157877E-1
206 177 1.00731199809571E-1
206 176 5.901965452561106E-1
206 175 2.3932829728114227E-1
206 174 2.018516383168557E-1
206 173 2.0207670160869712E-1
207 194 2.7943837810654643E-2
207 193 2.3445087144903148E-1
207 192 1.066005224263773E-1
207 191 1.0076915688074455E-1
207 190 1.010070829280853E-1
207 189 2.85661221923367E-1
207 188 2.7688490613994525E-2
207 187 2.763977992148598E-2
207 186 1.0213698480524815E-1
207 185 1.0263798303453316E-1
207 184 2.7381064118527542E-2
207 183 2.7533141336247437E-2
207 182 2.753322914904802E-2
208 199 2.050444366494067E-1
208 198 1.595121009322823E-2
208 197 3.3187874613439486E-2
208 196 2.6697746011184388E-2
208 195 2.675268215066878E-2
