%%MatrixMarket matrix coordinate real general
%Complete acoustic radiance transfer reflection kernel, w.r.t. frequency band #7 (center freq. 8000.00Hz). Includes energy losses due to surface materials and air absorption over propagation paths.
208 208 2354
1 24 8.820883276296877E-2
1 23 8.874470652581087E-2
1 22 1.3473219384013074E-1
1 21 1.4257795347228375E-1
1 20 8.887040528076633E-2
1 19 3.0214001275978486E-1
1 18 2.352367376272048E-1
1 17 2.3471522214336096E-1
1 16 2.0766681813359442E-1
1 15 2.0790567303505378E-1
1 14 2.0770250113368355E-1
1 13 3.5983228264604644E-1
2 38 1.3122038253774349E-1
2 37 3.687757064560321E-1
2 36 6.2759727743875E-2
2 35 1.294853264507106E-1
2 34 1.3850346358439114E-1
2 33 1.355935078168979E-1
2 32 3.8230202102724986E-1
2 31 6.908123259078866E-2
2 30 2.680872349882298E-1
2 29 2.677592765851237E-1
2 28 1.920544315377529E-1
2 27 1.9067990098856444E-1
2 26 5.206370307925012E-1
2 25 7.785327592298115E-2
3 43 2.9631883503939005E-1
3 42 1.426975375005866E-1
3 41 1.8906640899814792E-1
3 40 5.159394809717862E-1
3 39 7.741045061694143E-2
4 48 1.1838803874892366E-1
4 47 3.0111778222572155E-1
4 46 1.7710911639014404E-1
4 45 4.82004475433816E-1
4 44 7.425020037961383E-2
5 57 1.57420219811905E-1
5 56 3.644912512497158E-1
5 55 6.78282501801917E-2
5 54 1.645199724872183E-1
5 53 2.437938402348844E-1
5 52 1.6018655460534875E-1
5 51 2.3121556422526063E-1
5 50 4.596813772900174E-1
5 49 7.367944019984823E-2
6 66 1.0387993633418086E-1
6 65 2.4243560824790636E-1
6 64 4.6073137172937505E-2
6 63 1.1396695370766231E-1
6 62 1.0706225012345977E-1
6 61 1.6601908792621778E-1
6 60 2.3037652055978475E-1
6 59 4.596440534969716E-1
6 58 7.367770474717915E-2
7 94 7.212940631525825E-3
7 93 2.0142179053889816E-2
7 92 7.952394049961153E-3
7 91 1.1591334233058363E-2
7 90 2.541395334481508E-2
7 89 2.4561540448026446E-2
7 88 2.9825393613752464E-2
7 87 8.865073063751276E-3
7 86 8.861834226692854E-3
7 85 3.592696036617958E-2
7 84 7.908591102569805E-3
7 83 8.0850253586886E-3
7 82 7.830377699400608E-3
7 81 8.185267738868974E-3
8 123 1.0397142077779049E-3
8 122 3.090570871368849E-3
8 121 2.1398962664994927E-3
8 120 1.2181564333402309E-3
8 119 3.219604539204483E-3
8 118 2.2849639760959086E-3
8 117 8.036379194235319E-3
8 116 7.694707233812736E-3
8 115 4.554648932338068E-3
8 114 1.2820973218891038E-3
8 113 6.3931615231748486E-3
8 112 1.7347396670198443E-2
8 111 1.086603594866342E-3
9 138 2.2806381962091294E-3
9 137 1.2445536540419076E-2
9 136 2.3160986078609087E-3
9 135 8.044022611065365E-3
9 134 2.638058299335172E-3
9 133 8.690952881333393E-3
9 132 1.3151480429412415E-2
9 131 2.7802759351487944E-3
9 130 2.999121111180389E-3
9 129 1.728221182849986E-2
9 128 2.9361076646131396E-3
9 127 2.548375110725375E-3
9 126 2.4849551904788957E-3
9 125 2.7042250199204435E-3
9 124 2.70360606130975E-3
10 148 1.4136345710601215E-2
10 147 2.550460057205871E-2
10 146 4.910410737012578E-3
10 145 4.576251001883814E-3
10 144 2.8499465218782397E-2
10 143 4.794830536603483E-3
10 142 3.152306929123467E-3
10 141 3.0405989376223568E-3
10 140 3.3067804102355387E-3
10 139 3.305467484751589E-3
11 172 1.5159142127822678E-5
11 171 1.5165677176133854E-5
11 170 2.0409580458987376E-4
11 169 1.5234762657688638E-5
11 168 1.457419413742062E-5
11 167 1.3814208301284375E-5
11 166 1.455063374810288E-5
11 165 1.3816832608390078E-5
11 164 1.3565569723931218E-5
11 163 1.4151598324909548E-5
11 162 1.2275374822919085E-5
11 161 1.2958601376878571E-5
12 194 8.947218975091919E-5
12 193 8.568298739974766E-5
12 192 4.3473338315863636E-4
12 191 2.744907793411959E-4
12 190 9.018347706740038E-5
12 189 8.210447434963913E-5
12 188 8.10049576375756E-5
12 187 7.948522827975307E-5
12 186 8.697280613101094E-5
12 185 8.704169441174192E-5
12 184 7.1888934241095E-5
12 183 7.625924288766793E-5
12 182 7.626184347921277E-5
13 12 8.820328573238924E-2
13 11 8.871730395647581E-2
13 10 1.3311936855195125E-1
13 9 1.4219645919041504E-1
13 8 8.888279207469885E-2
13 7 3.0135201501245407E-1
13 6 2.352763019190285E-1
13 5 2.3481292947909163E-1
13 4 2.077615292779403E-1
13 3 2.0728197963923709E-1
13 2 2.0793078513691873E-1
13 1 3.598646229997032E-1
14 38 1.288398233285496E-1
14 37 6.261799156735696E-2
14 36 3.518293542404879E-1
14 35 1.300394440214381E-1
14 34 1.3780385119248634E-1
14 33 1.356492096237853E-1
14 32 6.896740310105108E-2
14 31 3.811741092520365E-1
14 30 2.654653896061379E-1
14 29 2.667358635135652E-1
14 28 1.9118597556683015E-1
14 27 1.9013932110974963E-1
14 26 7.771414342873627E-2
14 25 5.21429750652307E-1
15 43 2.951878511538592E-1
15 42 1.413962279824988E-1
15 41 1.8779706160175338E-1
15 40 7.707871949158984E-2
15 39 5.127111646129839E-1
16 48 1.1752786635185895E-1
16 47 3.0145472885863905E-1
16 46 1.7696425662422766E-1
16 45 7.419708952015956E-2
16 44 4.7987708046090605E-1
17 57 1.5678934167039923E-1
17 56 6.788514899773797E-2
17 55 3.6501459451462437E-1
17 54 1.6446337081550425E-1
17 53 2.436205980275732E-1
17 52 1.60617605644737E-1
17 51 2.3118788631603243E-1
17 50 7.37197323937362E-2
17 49 4.6036073650498416E-1
18 66 1.0375051609550397E-1
18 65 4.6076061361423934E-2
18 64 2.4742464316372642E-1
18 63 1.1379242987161005E-1
18 62 1.0678146132031191E-1
18 61 1.664651889692662E-1
18 60 2.3100497618320345E-1
18 59 7.371760604282146E-2
18 58 4.594658124336727E-1
19 80 7.210419638546051E-3
19 79 2.006548532122802E-2
19 78 7.952690358632403E-3
19 77 1.133624540653889E-2
19 76 2.5636506112003018E-2
19 75 2.4477562041559153E-2
19 74 2.921207060411933E-2
19 73 8.717157709976435E-3
19 72 8.727255349756694E-3
19 71 3.535901075031318E-2
19 70 7.793634267461669E-3
19 69 7.961331124003618E-3
19 68 7.7125231970608344E-3
19 67 8.062778808008195E-3
20 123 1.0339698443132205E-3
20 122 2.862350523139015E-3
20 121 1.2110984745586076E-3
20 120 2.081318034662754E-3
20 119 3.1836469873446314E-3
20 118 2.2428897963388127E-3
20 117 7.856633129771171E-3
20 116 8.204620707652092E-3
20 115 1.2745150612692427E-3
20 114 4.606315047554821E-3
20 113 6.863571294726464E-3
20 112 1.0803447904273445E-3
20 111 1.4352098324339315E-2
21 138 2.2857911453534364E-3
21 137 1.2238980463412999E-2
21 136 2.321331677428605E-3
21 135 2.642524149656335E-3
21 134 9.457433876299968E-3
21 133 8.610198202014146E-3
21 132 1.3173235133491744E-2
21 131 2.786557782275961E-3
21 130 3.0058974243146763E-3
21 129 2.942816392654796E-3
21 128 1.737744705259198E-2
21 127 2.554132993482935E-3
21 126 2.490569780177386E-3
21 125 2.7103350351019725E-3
21 124 2.709714677995784E-3
22 148 1.4038210301623178E-2
22 147 2.5708744129161385E-2
22 146 4.89961944661801E-3
22 145 4.566194072611579E-3
22 144 4.785911345246888E-3
22 143 2.845469675312709E-2
22 142 3.145379309152989E-3
22 141 3.0339168110413814E-3
22 140 3.2995133139397145E-3
22 139 3.2982032737867324E-3
23 160 1.6872048568393977E-5
23 159 1.687629592947829E-5
23 158 2.203809235829124E-4
23 157 1.6957817300575268E-5
23 156 1.6221296342206677E-5
23 155 1.538411737658125E-5
23 154 1.637553654923603E-5
23 153 1.5520709097779423E-5
23 152 1.5266192798488677E-5
23 151 1.592301057035544E-5
23 150 1.3818765036682937E-5
23 149 1.458297933390794E-5
24 194 9.410254335119927E-5
24 193 9.011724267273987E-5
24 192 4.497708388537693E-4
24 191 9.484957323903054E-5
24 190 3.078044206431739E-4
24 189 8.635353486176378E-5
24 188 8.51971160980075E-5
24 187 8.359873789608005E-5
24 186 9.147381194204899E-5
24 185 9.154626532048898E-5
24 184 7.56093213961454E-5
24 183 8.020580171049946E-5
24 182 8.020853688753343E-5
25 12 6.150177929934668E-1
25 11 5.793674772314016E-1
25 10 3.3167896229807126E-1
25 9 4.039446091592961E-1
25 8 6.024946204754692E-1
25 7 3.8264411974420043E-1
25 6 2.2668308146504496E-1
25 5 2.2648922864296026E-1
25 4 4.281891011348947E-1
25 3 4.308565682160809E-1
25 2 5.8372736003827724E-2
25 1 1.6523831578985262E-1
26 24 6.07824960227587E-1
26 23 6.023300256244487E-1
26 22 3.272815168357814E-1
26 21 4.01763854043519E-1
26 20 6.031312778509293E-1
26 19 3.8123232079487807E-1
26 18 2.2543362795837127E-1
26 17 2.2804330790569904E-1
26 16 4.3090646637945806E-1
26 15 4.3066885404019384E-1
26 14 5.831830533424845E-2
26 13 1.6484652424505467E-1
27 43 1.7670572089791178E-1
27 42 5.6615662615996556E-2
27 41 2.6668386106132574E-1
27 40 1.1634546769202213E-1
27 39 1.1704382006537634E-1
28 48 5.252445208753407E-2
28 47 1.8229321046276545E-1
28 46 2.2609221922010933E-1
28 45 1.0864205197954137E-1
28 44 1.0901396116731375E-1
29 57 4.084328637767092E-1
29 56 3.335907279699683E-1
29 55 3.261539078213393E-1
29 54 1.4765361829158266E-1
29 53 3.6588388805287825E-1
29 52 3.848307924307319E-1
29 51 5.647170464026237E-2
29 50 1.7936857312982712E-1
29 49 1.789807513547173E-1
30 66 2.7677865082903697E-1
30 65 2.258190674438656E-1
30 64 2.23978110096432E-1
30 63 1.0238424334253415E-1
30 62 2.604496988977129E-1
30 61 2.5441611730938934E-1
30 60 5.6320750536777556E-2
30 59 1.781358127108331E-1
30 58 1.7834814698632664E-1
31 80 2.2796352203748303E-3
31 79 3.2047582481216925E-2
31 78 2.514310393441878E-3
31 77 3.520488602147697E-3
31 76 1.572501187807074E-2
31 75 1.8124153166200585E-2
31 74 5.15276767112896E-2
31 73 2.756003219423075E-3
31 72 2.7591956737377556E-3
31 71 4.083365841186046E-3
31 70 2.464023463467707E-3
31 69 2.517042244576577E-3
31 68 2.438379511781515E-3
31 67 2.5491157888465916E-3
32 94 2.278265794955899E-3
32 93 3.2101012283328886E-2
32 92 2.511828154088757E-3
32 91 3.6090372618872157E-3
32 90 1.5564912033361621E-2
32 89 1.8144187369828577E-2
32 88 5.230433344434892E-2
32 87 2.8001052223629573E-3
32 86 2.799082209411293E-3
32 85 4.150129566463894E-3
32 84 2.4979926379160903E-3
32 83 2.553720828581776E-3
32 82 2.4732883002193885E-3
32 81 2.5853831973210568E-3
33 123 3.5165936675860742E-3
33 122 1.3057303050176768E-2
33 121 4.87695038796836E-3
33 120 4.923722630211239E-3
33 119 1.4128394721540899E-2
33 118 8.666536370491201E-3
33 117 4.745471717975075E-2
33 116 4.7127473219305355E-2
33 115 7.274771519487211E-3
33 114 7.166803025827117E-3
33 113 5.153660678131805E-2
33 112 2.2159552323787166E-2
33 111 2.37369279536715E-2
34 138 2.2328567146596284E-3
34 137 3.0603675239939093E-2
34 136 2.2675741978592347E-3
34 135 5.5554485811521075E-3
34 134 5.45639244500822E-3
34 133 5.218133612525415E-3
34 132 3.613320320950622E-2
34 131 2.7220265804205218E-3
34 130 2.936286747414676E-3
34 129 6.59942470142378E-3
34 128 6.574290771852133E-3
34 127 2.4949842929548366E-3
34 126 2.4328930787495717E-3
34 125 2.6475690022716106E-3
34 124 2.6469630114168224E-3
35 148 8.63658579924034E-3
35 147 6.91798076877748E-2
35 146 3.7392412790171396E-3
35 145 3.484781124398977E-3
35 144 8.890885394182526E-3
35 143 8.853832944066766E-3
35 142 2.4004582966274234E-3
35 141 2.3153934913824E-3
35 140 2.5180887043515527E-3
35 139 2.5170889213540016E-3
36 160 1.0065382579037827E-5
36 159 1.0067916433423774E-5
36 158 3.186751654638671E-4
36 157 1.0116549756468843E-5
36 156 9.677162376008905E-6
36 155 9.177725301608333E-6
36 154 9.769177680879986E-6
36 153 9.259212023592074E-6
36 152 9.107374864365231E-6
36 151 9.499213598811183E-6
36 150 8.243880777145329E-6
36 149 8.699789213086512E-6
37 172 9.438073432475448E-6
37 171 9.442142149908503E-6
37 170 2.6693960887646135E-4
37 169 9.485154732186182E-6
37 168 9.073885139955856E-6
37 167 8.600718382324473E-6
37 166 9.05921645470945E-6
37 165 8.602352274464553E-6
37 164 8.445916142763812E-6
37 163 8.810777222825389E-6
37 162 7.642641517110119E-6
37 161 8.068017988477298E-6
38 194 3.046620157337519E-4
38 193 2.9175939169442987E-4
38 192 2.2202652919419766E-3
38 191 4.595863289082212E-4
38 190 4.920261798470973E-4
38 189 2.795741864120879E-4
38 188 2.7583021883106895E-4
38 187 2.7065538393753467E-4
38 186 2.9615135723916255E-4
38 185 2.96385928925922E-4
38 184 2.447892208273368E-4
38 183 2.596705716174562E-4
38 182 2.596794268993528E-4
39 12 2.2847321667849405E-2
39 11 2.2980467951588472E-2
39 10 2.5345089054831654E-2
39 9 2.512067683628559E-2
39 8 2.3023334384940176E-2
39 7 2.506284786019756E-2
39 6 1.2875647211920743E-1
39 5 8.23076333181405E-2
39 4 2.7030682439491024E-2
39 3 2.70194969173216E-2
39 2 1.9923714376975235E-1
39 1 7.619751228166301E-2
40 24 2.2964159076795918E-2
40 23 2.3103667671905154E-2
40 22 2.548568721719714E-2
40 21 2.525578154069188E-2
40 20 2.3136391902734834E-2
40 19 2.5192495547671747E-2
40 18 1.295125831636758E-1
40 17 8.215001032161579E-2
40 16 2.7163574114035575E-2
40 15 2.7157272821843284E-2
40 14 1.9969934435573097E-1
40 13 7.668569230273183E-2
41 38 2.3663349185217224E-2
41 37 2.391782421079593E-2
41 36 2.3930953938775486E-2
41 35 2.5615700793615474E-2
41 34 1.832264366781238E-1
41 33 1.4273318593997963E-1
41 32 9.641010228329626E-2
41 31 9.649387095299129E-2
41 30 6.509484819394383E-2
41 29 7.534406216656227E-2
41 28 1.111054146350809E-1
41 27 1.4461995845731446E-1
41 26 5.474065490245252E-2
41 25 5.4659923156139587E-2
42 57 5.63342471807693E-3
42 56 5.769816227989493E-3
42 55 5.767998488443422E-3
42 54 2.9878237244265273E-2
42 53 6.38526752725129E-3
42 52 5.626523221071905E-3
42 51 2.8792933640159713E-2
42 50 1.1162996046511232E-2
42 49 1.115858075471954E-2
43 66 2.966760201190914E-2
43 65 3.0340854956302264E-2
43 64 3.035481360953162E-2
43 63 7.738460326872632E-2
43 62 2.9729640226144004E-2
43 61 3.412257175350778E-2
43 60 3.2841543276111107E-1
43 59 1.6412175404544388E-1
43 58 1.6420768905643537E-1
44 12 1.620577789460741E-2
44 11 1.6300219559724074E-2
44 10 1.797746317545978E-2
44 9 1.7818285893174163E-2
44 8 1.6330625044801532E-2
44 7 1.7777267363476044E-2
44 6 5.504377974562185E-2
44 5 9.614810128565184E-2
44 4 1.917306729963372E-2
44 3 1.9165133324240535E-2
44 2 1.4017697454076028E-1
44 1 5.4051785237766936E-2
45 24 1.6086947680789863E-2
45 23 1.618467681874948E-2
45 22 1.7853339001047755E-2
45 21 1.769228452580708E-2
45 20 1.6207600932255692E-2
45 19 1.7647951160268325E-2
45 18 5.484150272719649E-2
45 17 9.370252400694007E-2
45 16 1.902873926863242E-2
45 15 1.902432506136797E-2
45 14 1.3986607787348415E-1
45 13 5.364568633920269E-2
46 38 2.7696178174910013E-1
46 37 2.612165138835072E-1
46 36 2.1886775487498392E-1
46 35 1.2034544706730839E-1
46 34 1.7602492207399997E-2
46 33 1.3333561577425485E-1
46 32 7.369307715759787E-2
46 31 7.275138481846365E-2
46 30 5.2690114555452666E-2
46 29 4.217378999134354E-2
46 28 1.1132829053719095E-1
46 27 7.742886430942807E-2
46 26 3.8367171872326446E-2
46 25 3.837512485393433E-2
47 57 3.8793943219433705E-2
47 56 3.973318795171568E-2
47 55 3.972067029358283E-2
47 54 9.41683969007333E-2
47 53 4.397142383002157E-2
47 52 3.8746416839595364E-2
47 51 3.0109196108848285E-1
47 50 1.5302897519064715E-1
47 49 1.5272065290600384E-1
48 66 2.2188284314779995E-3
48 65 2.269180757695538E-3
48 64 2.2702247199489754E-3
48 63 1.2923537532362347E-2
48 62 2.2234682454247818E-3
48 61 2.552013888127489E-3
48 60 1.6276298890723018E-2
48 59 6.275075325376368E-3
48 58 6.2892206756583234E-3
49 12 2.3466380292814972E-2
49 11 2.360313423597815E-2
49 10 3.1786518815172804E-1
49 9 2.5801333058776597E-2
49 8 2.364716215493739E-2
49 7 6.393577833317213E-2
49 6 2.014167113349696E-1
49 5 2.76114099526175E-2
49 4 1.4547150868067885E-1
49 3 8.695447953238311E-2
49 2 1.1211472479072726E-1
49 1 9.580409680457212E-2
50 24 2.3464381303254414E-2
50 23 2.3606928777332493E-2
50 22 3.220175519050609E-1
50 21 2.580592157547329E-2
50 20 2.3640365831459995E-2
50 19 6.432964979432869E-2
50 18 2.0164505607551542E-1
50 17 2.7610642343661725E-2
50 16 1.42656967268927E-1
50 15 8.65266400138593E-2
50 14 1.1280400125304609E-1
50 13 9.582498562535156E-2
51 38 1.1911308649375116E-1
51 37 1.1479677702871498E-1
51 36 1.0975428134817802E-1
51 35 3.539640212911978E-1
51 34 2.4339684838282277E-2
51 33 2.344520076900322E-2
51 32 7.829618135742132E-2
51 31 7.787262463206543E-2
51 30 2.0131986238463448E-1
51 29 2.8256900793316147E-2
51 28 8.386432112450593E-2
51 27 1.1124839425963025E-1
51 26 1.0303771981754009E-1
51 25 1.0277429444760802E-1
52 43 1.0824007555504213E-1
52 42 5.990692156787544E-3
52 41 6.259549002153665E-3
52 40 1.7928611430241746E-2
52 39 1.8395895611120257E-2
53 48 5.18220976904508E-1
53 47 6.387678632730748E-2
53 46 2.736101774855042E-1
53 45 2.4415714543266023E-1
53 44 2.4472715419376032E-1
54 66 4.076006878686682E-2
54 65 2.3707285818254844E-2
54 64 2.1771662215171187E-2
54 63 1.1008163097987303E-1
54 62 5.251175401758532E-2
54 61 1.8271966134257956E-2
54 60 2.9439600344025443E-2
54 59 2.6406031053259907E-2
54 58 2.642435030465039E-2
55 80 3.614283892012916E-4
55 79 4.266785873924568E-4
55 78 3.9863533750120916E-4
55 77 4.106310121332063E-4
55 76 1.0013777081792926E-2
55 75 4.4638070822393676E-4
55 74 4.3804972658498985E-4
55 73 4.3695491073605713E-4
55 72 4.374610634793736E-4
55 71 4.1941227500423773E-4
55 70 3.906625162638471E-4
55 69 3.9906846318128595E-4
55 68 3.865967551859971E-4
55 67 4.041536142343486E-4
56 94 3.6733604431527943E-4
56 93 4.3337628133302113E-4
56 92 4.0499445682130116E-4
56 91 4.174298009045142E-4
56 90 1.0077287586666416E-2
56 89 4.537583172120398E-4
56 88 4.51649798468015E-4
56 87 4.5147479206625015E-4
56 86 4.5130984663636236E-4
56 85 4.326029325683388E-4
56 84 4.0276368822828636E-4
56 83 4.1174901959800783E-4
56 82 3.9878048587014756E-4
56 81 4.168540996602594E-4
57 148 2.6038576452484846E-2
57 147 6.267651466329823E-3
57 146 4.533615763923254E-3
57 145 4.225097408945507E-3
57 144 8.34310676274043E-3
57 143 8.370792148644708E-3
57 142 2.910418120194422E-3
57 141 2.807281918693333E-3
57 140 3.053038248445415E-3
57 139 3.0518260688560325E-3
58 12 2.3463467631677E-2
58 11 2.3600204600859077E-2
58 10 2.6028594743201273E-2
58 9 2.3220819625735323E-1
58 8 2.3644227055046714E-2
58 7 5.2741331467882874E-2
58 6 2.760733252682198E-2
58 5 1.9972506220941053E-1
58 4 8.275026106461095E-2
58 3 1.383397578663736E-1
58 2 1.1278114025492486E-1
58 1 9.597305661975146E-2
59 24 2.3462039234442275E-2
59 23 2.3604572480316808E-2
59 22 2.603823599231189E-2
59 21 2.3342236168150124E-1
59 20 2.3638006196965232E-2
59 19 5.275864494211163E-2
59 18 2.7607090106829515E-2
59 17 1.997890172653916E-1
59 16 8.337686938111602E-2
59 15 1.388716078394168E-1
59 14 1.1217171813635368E-1
59 13 9.601737117477323E-2
60 38 2.260642230018057E-2
60 37 2.284953116224627E-2
60 36 2.2862074449042622E-2
60 35 2.447157184399323E-2
60 34 2.7295877591833273E-1
60 33 2.283562458671463E-2
60 32 6.858822385720298E-2
60 31 6.830029629162125E-2
60 30 2.8130157702221527E-2
60 29 1.9956144308573834E-1
60 28 1.1113085577868569E-1
60 27 9.16826675040765E-2
60 26 1.0226400121908169E-1
60 25 1.0259806448325987E-1
61 43 5.235766470656366E-2
61 42 4.738965914403377E-1
61 41 2.1003413407361501E-1
61 40 1.9454084384071066E-1
61 39 1.953634453680322E-1
62 48 4.652450706300757E-3
62 47 8.546294238625607E-2
62 46 4.938875849495437E-3
62 45 1.2445324260511138E-2
62 44 1.2617475399660977E-2
63 57 5.1200007269637554E-2
63 56 2.3601084751676635E-2
63 55 2.9316296646071875E-2
63 54 1.5860226710820957E-1
63 53 2.5122868305538008E-2
63 52 6.764255758867203E-2
63 51 2.9482922488601803E-2
63 50 2.63640979921838E-2
63 49 2.6401799659315946E-2
64 80 1.999121744414311E-4
64 79 2.3600316616445634E-4
64 78 2.2049196883833412E-4
64 77 2.2712698000852444E-4
64 76 2.4686688245322274E-4
64 75 4.790781732819589E-3
64 74 2.4229273618655393E-4
64 73 2.4168717496471202E-4
64 72 2.4196713663496018E-4
64 71 2.3198404549463377E-4
64 70 2.1608206613667834E-4
64 69 2.207315380008504E-4
64 68 2.1383322470054072E-4
64 67 2.2354422132832063E-4
65 94 1.9719816708667364E-4
65 93 2.3265075578687397E-4
65 92 2.174144514304109E-4
65 91 2.2409015641022768E-4
65 90 2.436352832161902E-4
65 89 4.770894401067469E-3
65 88 2.4246058561711758E-4
65 87 2.4236663637856463E-4
65 86 2.4227808820327236E-4
65 85 2.3223559653072647E-4
65 84 2.1621690089175622E-4
65 83 2.210405246667612E-4
65 82 2.1407858580856196E-4
65 81 2.23781100895765E-4
66 138 1.2704771379903744E-3
66 137 4.507609918072647E-3
66 136 1.2902311008864613E-3
66 135 2.0010157316970806E-3
66 134 1.7895770741716865E-3
66 133 1.2049964296821838E-2
66 132 1.6280544271474995E-3
66 131 1.5488107753271402E-3
66 130 1.6707230511847373E-3
66 129 2.9291367946306683E-3
66 128 2.9515017648203035E-3
66 127 1.4196255778675876E-3
66 126 1.3842961867786135E-3
66 125 1.506445024687049E-3
66 124 1.5061002208661028E-3
67 24 5.985184703760189E-3
67 23 6.021545047141304E-3
67 22 6.642374527500774E-3
67 21 6.582453851384342E-3
67 20 6.030074014614015E-3
67 19 6.565959524023184E-3
67 18 1.156220457747417E-2
67 17 1.347520983857355E-2
67 16 7.079684814196377E-3
67 15 7.078042498554985E-3
67 14 3.4300793664233074E-2
67 13 2.4828632742256676E-2
68 38 3.514657058178347E-3
68 37 2.402366580441127E-3
68 36 2.403685363430348E-3
68 35 2.572905586177198E-3
68 34 2.896442208591455E-3
68 33 2.206003554807257E-2
68 32 2.592503214662336E-2
68 31 2.64579776929341E-3
68 30 5.414889165298957E-3
68 29 5.951416646200904E-3
68 28 1.1172834921487648E-2
68 27 1.0033519135389751E-2
68 26 9.978404977965814E-3
68 25 2.9817653224194778E-3
69 57 8.426859253938037E-4
69 56 8.630882936685966E-4
69 55 8.628163838431948E-4
69 54 1.6369468751475146E-3
69 53 9.551516784847677E-4
69 52 8.416535526043671E-4
69 51 4.173470617015575E-3
69 50 3.6877266917616186E-3
69 49 9.37247061334176E-4
70 66 3.14847433154835E-4
70 65 3.219923301815991E-4
70 64 3.221404663921967E-4
70 63 8.428006474157699E-4
70 62 3.1550581371762924E-4
70 61 3.6212580055917546E-4
70 60 2.1229909163222238E-3
70 59 1.8306451043962155E-3
70 58 5.151498601207494E-4
71 94 4.543160888758165E-2
71 93 9.57676730126582E-2
71 92 5.008914874727581E-2
71 91 1.3167884511342565E-1
71 90 1.0761053373886588E-1
71 89 1.0742085555924362E-1
71 88 1.2633844482368475E-1
71 87 1.300780847217002E-1
71 86 1.301131869795351E-1
71 85 2.162787666989805E-1
71 84 4.98132504034978E-2
71 83 5.092454363712379E-2
71 82 5.6178062992387465E-2
71 81 1.7819726420340315E-1
72 102 5.811033242494055E-2
72 101 1.074345987648887E-1
72 100 3.7030862004135745E-2
72 99 6.295345027375877E-2
72 98 1.871289857672548E-1
72 97 9.36259520332674E-2
72 96 2.3077759912371068E-1
72 95 4.175058241190584E-2
73 110 1.3943872029867052E-1
73 109 3.7502365269160265E-1
73 108 3.765827989629974E-2
73 107 1.8725308978348987E-1
73 106 6.519960671046718E-2
73 105 9.435698328804513E-2
73 104 2.2979666375167335E-1
73 103 4.171340090471833E-2
74 123 6.43793237190876E-2
74 122 1.086251653937588E-1
74 121 2.780060349395078E-1
74 120 4.3330326147484395E-2
74 119 1.1941782189253314E-1
74 118 1.4522555175387236E-1
74 117 1.1561471339523093E-1
74 116 1.1409104199809379E-1
74 115 2.9111778111916553E-1
74 114 4.5604729893303456E-2
74 113 8.709775628489483E-2
74 112 2.3306862351224786E-1
74 111 3.865093749042112E-2
75 138 6.852110610683111E-2
75 137 1.1053841397006486E-1
75 136 4.560594056442535E-2
75 135 2.4741610567076497E-1
75 134 4.247373453603774E-2
75 133 1.2509394254496356E-1
75 132 1.713209083272045E-1
75 131 1.2517677582180842E-1
75 130 1.9215797331928386E-1
75 129 3.281452533733144E-1
75 128 4.727244183626733E-2
75 127 1.0534383270649053E-1
75 126 9.12847180539054E-2
75 125 3.029728131333362E-1
75 124 4.352907824934432E-2
76 148 1.7677542037348992E-1
76 147 1.8188204359436771E-1
76 146 2.6847078688073667E-1
76 145 1.8982982858231634E-1
76 144 4.6397255305426904E-1
76 143 6.557643559314685E-2
76 142 1.1417735367205752E-1
76 141 1.007698310609844E-1
76 140 3.2484902791475423E-1
76 139 4.520718176884738E-2
77 172 1.364272649029942E-2
77 171 4.140246438736638E-3
77 170 1.1951269215255113E-2
77 169 7.5401464406811705E-3
77 168 1.7331428198742557E-2
77 167 3.771293959320524E-3
77 166 3.972338910902608E-3
77 165 3.772010398027635E-3
77 164 3.7034153560466156E-3
77 163 3.8634018043943756E-3
77 162 3.3511907384345583E-3
77 161 3.537712334142307E-3
78 181 2.451860083657459E-3
78 180 4.5678770967193526E-4
78 179 1.272500129024176E-3
78 178 2.1579628577266226E-3
78 177 4.5461369972920446E-4
78 176 3.6209106513550196E-4
78 175 4.064492468014211E-4
78 174 4.097021637027733E-4
78 173 4.0992378428364375E-4
79 194 1.8329067360275487E-2
79 193 4.062090116011378E-3
79 192 1.1772331761924942E-2
79 191 3.990507964384181E-2
79 190 4.27545096103996E-3
79 189 3.8924386725685185E-3
79 188 3.84031238584575E-3
79 187 3.7682645057383226E-3
79 186 4.123238309821044E-3
79 185 4.1265041903973225E-3
79 184 3.408136645247315E-3
79 183 3.615325821254211E-3
79 182 3.6154491110405576E-3
80 208 3.5565166686492363E-3
80 207 8.249394538871796E-4
80 206 1.2146597168675997E-3
80 205 2.013460758275014E-3
80 204 5.786108471278926E-4
80 203 6.636453716604165E-3
80 202 4.4513509791524155E-4
80 201 5.358458742524381E-3
80 200 4.463314848709308E-4
81 12 5.989538313325105E-3
81 11 6.024443269771453E-3
81 10 6.644340380700748E-3
81 9 6.5855096083021E-3
81 8 6.035680917170489E-3
81 7 6.5703494563624084E-3
81 6 1.157739244753752E-2
81 5 1.3329289556212043E-2
81 4 7.086227018656722E-3
81 3 7.083294678728117E-3
81 2 3.4477794074345404E-2
81 1 2.4789769245132307E-2
82 38 5.789191582841034E-3
82 37 2.4008854764535326E-3
82 36 2.402203446388343E-3
82 35 2.5713193416987672E-3
82 34 3.2433108463091513E-3
82 33 2.2060275533777037E-2
82 32 2.644333238888948E-3
82 31 2.552070901193219E-2
82 30 5.464940793306849E-3
82 29 5.868948564221428E-3
82 28 1.1229877207824571E-2
82 27 9.937748889823232E-3
82 26 2.9796988629438264E-3
82 25 9.919702381522554E-3
83 57 8.384412593517674E-4
83 56 8.58740859516659E-4
83 55 8.584703193194515E-4
83 54 1.7461672414349522E-3
83 53 9.503405148323504E-4
83 52 8.374140866939457E-4
83 51 4.174177364017896E-3
83 50 9.325478001270141E-4
83 49 3.636730350607792E-3
84 66 3.147097377067474E-4
84 65 3.218515099826193E-4
84 64 3.2199958140729287E-4
84 63 8.814322252247902E-4
84 62 3.153678303332364E-4
84 61 3.619674283791248E-4
84 60 2.1070414430304687E-3
84 59 5.149338314982381E-4
84 58 1.8447260685993529E-3
85 80 4.5444985049126814E-2
85 79 9.75282799041746E-2
85 78 5.0123281662599765E-2
85 77 1.3033678015831146E-1
85 76 1.0753790514048994E-1
85 75 1.0746723955204918E-1
85 74 1.2460428142923599E-1
85 73 1.271698079456347E-1
85 72 1.2937332464338608E-1
85 71 2.1312694522093542E-1
85 70 4.91208016340332E-2
85 69 5.017774166254327E-2
85 68 5.527374839476629E-2
85 67 1.752676081685116E-1
86 102 5.905614764409299E-2
86 101 3.723738048866712E-2
86 100 1.2720870921384822E-1
86 99 6.482005461973915E-2
86 98 1.8874425278932333E-1
86 97 9.433392935356409E-2
86 96 4.20011804910215E-2
86 95 2.3208534706084452E-1
87 110 1.471459465718287E-1
87 109 3.7915881689530605E-2
87 108 3.9049884116506783E-1
87 107 1.89785712441653E-1
87 106 6.288103724315369E-2
87 105 9.435600350952983E-2
87 104 4.200410866898842E-2
87 103 2.3075689053357779E-1
88 123 6.453340536704809E-2
88 122 1.0823115225124165E-1
88 121 4.333829711609009E-2
88 120 2.769821084854227E-1
88 119 1.1956980113169445E-1
88 118 1.4520833699741084E-1
88 117 1.168328028044317E-1
88 116 1.1565650483710113E-1
88 115 4.560761454542254E-2
88 114 2.9054935328824477E-1
88 113 8.518855215490231E-2
88 112 3.865936957143331E-2
88 111 2.3622796483313505E-1
89 138 6.712698190626785E-2
89 137 1.1083653370854185E-1
89 136 4.840286206007045E-2
89 135 4.247864683796269E-2
89 134 2.5159646335796304E-1
89 133 1.2569271170351906E-1
89 132 1.7043326081101548E-1
89 131 1.2674395510018713E-1
89 130 1.9319629562416726E-1
89 129 4.730585272751727E-2
89 128 3.281453217583638E-1
89 127 1.0430745954675863E-1
89 126 9.212107985199885E-2
89 125 4.356870864685453E-2
89 124 3.0334760835111035E-1
90 148 1.7867581910524838E-1
90 147 1.8616912356668555E-1
90 146 2.6849992074301665E-1
90 145 1.906128920003574E-1
90 144 6.594355744193087E-2
90 143 4.6594329070802654E-1
90 142 1.1614787984934906E-1
90 141 1.0277940092440714E-1
90 140 4.546294948908523E-2
90 139 3.2432303813823293E-1
91 160 1.370786470585941E-2
91 159 4.205225428696699E-3
91 158 1.2394445844285425E-2
91 157 7.611299667002804E-3
91 156 1.7406498122663875E-2
91 155 3.8334052602770493E-3
91 154 4.080446502784711E-3
91 153 3.8674411045009397E-3
91 152 3.804020883720993E-3
91 151 3.967686347269154E-3
91 150 3.443351690932359E-3
91 149 3.633778157088994E-3
92 181 2.5024687389682576E-3
92 180 4.6127133853404793E-4
92 179 1.2227845759836147E-3
92 178 4.5904084227680036E-4
92 177 2.1206659492541274E-3
92 176 3.6564519305089753E-4
92 175 4.104387752746185E-4
92 174 4.1372362138902987E-4
92 173 4.139474173008293E-4
93 194 1.8241225390865295E-2
93 193 4.053608456955193E-3
93 192 1.1435438114259778E-2
93 191 4.2664757688667026E-3
93 190 4.023021692255162E-2
93 189 3.8843112463482804E-3
93 188 3.8322937995033143E-3
93 187 3.76039635563372E-3
93 186 4.1146289731119785E-3
93 185 4.11788803451764E-3
93 184 3.401020443435853E-3
93 183 3.607777007683572E-3
93 182 3.6079000400403927E-3
94 208 4.016428460040712E-3
94 207 8.311381668236085E-4
94 206 1.2312076941238942E-3
94 205 5.835468200892224E-4
94 204 2.02005950045846E-3
94 203 5.542886992971119E-3
94 202 9.034982614690066E-4
94 201 4.500616230227287E-4
94 200 7.92378818104365E-3
95 80 4.297274913209032E-3
95 79 3.491481844008965E-2
95 78 4.739654345216665E-3
95 77 7.84467046120073E-3
95 76 2.422315736452829E-2
95 75 1.4764710922392642E-2
95 74 3.8693922114803825E-2
95 73 5.195262553279364E-3
95 72 5.201280557263259E-3
95 71 1.8857411255690452E-2
95 70 4.644859897092296E-3
95 69 4.7448040793683565E-3
95 68 4.596519219920929E-3
95 67 4.805264996947342E-3
96 94 4.279664334975211E-3
96 93 3.457973268589239E-2
96 92 4.7184052845986564E-3
96 91 7.969600411605594E-3
96 90 2.38429853992457E-2
96 89 1.5025891748173537E-2
96 88 3.9486536306478005E-2
96 87 5.25992642335946E-3
96 86 5.258004719556002E-3
96 85 1.8883073427575142E-2
96 84 4.692415619454567E-3
96 83 4.797099607851649E-3
96 82 4.646009149588831E-3
96 81 4.856576562013162E-3
97 123 2.6430791625847035E-3
97 122 1.267969263445688E-2
97 121 4.264048652984441E-3
97 120 4.381390780355252E-3
97 119 1.4468908476098233E-2
97 118 4.1035796399560885E-3
97 117 3.0217491077858726E-2
97 116 3.144094554062329E-2
97 115 6.282332703949671E-3
97 114 6.2584294816089596E-3
97 113 3.203374840006486E-2
97 112 2.0743832452978794E-2
97 111 1.940366959440161E-2
98 138 7.438238485321997E-3
98 137 4.300598273027941E-2
98 136 7.553891638501687E-3
98 135 1.5191546644497704E-2
98 134 1.5102977204217695E-2
98 133 3.139554500989991E-2
98 132 8.033214689594041E-2
98 131 9.06779317079456E-3
98 130 9.781550667880699E-3
98 129 5.0339927645737796E-2
98 128 4.995299894556961E-2
98 127 8.31145503707771E-3
98 126 8.104612718862779E-3
98 125 8.819755211316482E-3
98 124 8.817736494903446E-3
99 148 1.9247752458018953E-2
99 147 2.697655513502805E-2
99 146 5.034674050651966E-3
99 145 4.692058037994528E-3
99 144 1.1042258203976855E-2
99 143 1.0965070053611616E-2
99 142 3.2320795032726515E-3
99 141 3.1175446188846994E-3
99 140 3.3904621047537607E-3
99 139 3.389115954254647E-3
100 160 1.8103577097348505E-5
100 159 1.8108134482809935E-5
100 158 3.916052402304964E-4
100 157 1.8195606280958998E-5
100 156 1.7405325011936547E-5
100 155 1.6507038482767255E-5
100 154 1.7570823556357387E-5
100 153 1.6653600338937045E-5
100 152 1.6380506326193787E-5
100 151 1.7085266695019018E-5
100 150 1.4827427577488697E-5
100 149 1.564742358405696E-5
101 172 1.6124076773028497E-5
101 171 1.613102780098221E-5
101 170 3.770442613454683E-4
101 169 1.6204510825225814E-5
101 168 1.5501894711145144E-5
101 167 1.4693533006706454E-5
101 166 1.5476834617179505E-5
101 165 1.4696324360523942E-5
101 164 1.4429067677720538E-5
101 163 1.505239913498172E-5
101 162 1.305674716903503E-5
101 161 1.3783463583230741E-5
102 194 3.317017592146214E-4
102 193 3.176539853822964E-4
102 192 2.215636769640261E-3
102 191 5.997487473906182E-4
102 190 6.047584912911617E-4
102 189 3.043873035519092E-4
102 188 3.003110466871486E-4
102 187 2.946769283882314E-4
102 186 3.224357521348376E-4
102 185 3.226911428207183E-4
102 184 2.665150592851168E-4
102 183 2.827171782945514E-4
102 182 2.8272681951147953E-4
103 80 4.10379089647757E-3
103 79 1.0157479212150052E-2
103 78 4.526252275497454E-3
103 77 5.232681065256844E-3
103 76 1.5391223571210068E-2
103 75 2.3188857818909354E-2
103 74 3.784927465276403E-2
103 73 4.961346807350882E-3
103 72 4.9670938518064645E-3
103 71 1.7768520846117495E-2
103 70 4.435725930056152E-3
103 69 4.531170143811168E-3
103 68 4.389561783029944E-3
103 67 4.588908819638178E-3
104 94 4.344169865323869E-3
104 93 1.0347341199445647E-2
104 92 4.789523767605738E-3
104 91 5.557506143770048E-3
104 90 1.752105471354658E-2
104 89 2.3887816179571662E-2
104 88 3.934694637063923E-2
104 87 5.339207020382191E-3
104 86 5.337256351568089E-3
104 85 1.9105709737728318E-2
104 84 4.763142371474711E-3
104 83 4.869404216372216E-3
104 82 4.716036436951003E-3
104 81 4.929777640950895E-3
105 123 2.6433537115293335E-3
105 122 4.3251445079099515E-3
105 121 3.2182005807122995E-3
105 120 3.2671585039105765E-3
105 119 5.067490482675571E-3
105 118 8.282711332934635E-3
105 117 3.063853822184672E-2
105 116 2.9610869098759512E-2
105 115 6.255851315478544E-3
105 114 6.2949381979571515E-3
105 113 3.283337200121901E-2
105 112 1.785759274434919E-2
105 111 2.0283391796216247E-2
106 138 2.41687355793532E-3
106 137 2.0619143008244776E-2
106 136 2.4544522196525286E-3
106 135 6.095069726522945E-3
106 134 6.2099094379593905E-3
106 133 1.0382531371725692E-2
106 132 1.7314118139318047E-2
106 131 2.9463574724804117E-3
106 130 3.178275503192882E-3
106 129 6.87637780468486E-3
106 128 6.80198969068175E-3
106 127 2.7006039059813574E-3
106 126 2.6333955567811812E-3
106 125 2.8657636078430037E-3
106 124 2.865107675349139E-3
107 148 5.429510544246396E-2
107 147 1.943291347513323E-1
107 146 1.7352025346375182E-2
107 145 1.6171197813967992E-2
107 144 8.66020178663694E-2
107 143 8.710278420675588E-2
107 142 1.113937563744057E-2
107 141 1.0744630675413381E-2
107 140 1.1685241941331517E-2
107 139 1.1680602427959716E-2
108 160 3.907335977826647E-6
108 159 3.908319608635216E-6
108 158 5.399698473819718E-5
108 157 3.927198844606934E-6
108 156 3.756630651456521E-6
108 155 3.562751438804439E-6
108 154 3.7923505764976447E-6
108 153 3.594384215603735E-6
108 152 3.5354417173569622E-6
108 151 3.6875517412516613E-6
108 150 3.2002372194512868E-6
108 149 3.3772188115924125E-6
109 172 4.538666920360923E-6
109 171 4.540623522346893E-6
109 170 9.405406546737819E-5
109 169 4.5613078056108125E-6
109 168 4.3635327292712626E-6
109 167 4.135991978922097E-6
109 166 4.356478717987142E-6
109 165 4.136777699891601E-6
109 164 4.0615492646416384E-6
109 163 4.237006991946934E-6
109 162 3.6752632288840743E-6
109 161 3.879822150056581E-6
110 194 7.781683539569457E-5
110 193 7.452124448121083E-5
110 192 4.804910242916698E-4
110 191 1.3037727302365784E-4
110 190 1.432784853085521E-4
110 189 7.140889681478101E-5
110 188 7.045261183689397E-5
110 187 6.913085443257754E-5
110 186 7.56430412337036E-5
110 185 7.570295558270142E-5
110 184 6.252411367358682E-5
110 183 6.632511138612187E-5
110 182 6.632737320406485E-5
111 12 4.3403124846643057E-4
111 11 4.3656063237409683E-4
111 10 4.814814097199568E-4
111 9 4.7721824413745744E-4
111 8 4.3737496728194397E-4
111 7 4.761196653607449E-4
111 6 5.106851720104434E-4
111 5 5.106972010217687E-4
111 4 5.135026773235012E-4
111 3 5.13290185626552E-4
111 2 1.3310691524014167E-2
111 1 4.909881323366364E-4
112 24 4.2970837218001305E-4
112 23 4.3231887540414745E-4
112 22 4.7689153917491285E-4
112 21 4.7258951384597996E-4
112 20 4.329312155257099E-4
112 19 4.714052980011265E-4
112 18 5.056251774150038E-4
112 17 5.05639761943941E-4
112 16 5.082883799967983E-4
112 15 5.081704693865502E-4
112 14 1.3178507667166838E-2
112 13 4.8611455222794404E-4
113 38 1.3142140376628685E-2
113 37 1.8507810233856586E-3
113 36 1.851797012598248E-3
113 35 1.9821641179279662E-3
113 34 2.424776962374986E-3
113 33 9.701355203298083E-2
113 32 1.7552010167714814E-2
113 31 1.689614638434645E-2
113 30 2.278504608713354E-3
113 29 2.3081977039964056E-3
113 28 1.50794288894661E-2
113 27 1.1690918428617239E-2
113 26 3.534505468432944E-3
113 25 3.5245467195288795E-3
114 80 9.84921527515132E-2
114 79 2.2058052007616458E-2
114 78 4.042822014813826E-1
114 77 1.3931169454905099E-1
114 76 8.02855319227884E-2
114 75 8.64463480442854E-2
114 74 2.264590709832443E-2
114 73 1.7142688205082332E-1
114 72 1.6626284267342822E-1
114 71 7.762036195764245E-2
114 70 2.019612503602892E-2
114 69 2.0630688240644533E-2
114 68 2.0208936443345546E-1
114 67 9.685231125704394E-2
115 94 9.415848842846239E-2
115 93 2.1775480843445993E-2
115 92 4.0373254192668856E-1
115 91 1.335889069670413E-1
115 90 7.969642847830961E-2
115 89 8.529506982021011E-2
115 88 2.2693654355599214E-2
115 87 1.683128900529111E-1
115 86 1.688709986805195E-1
115 85 7.783069281781872E-2
115 84 2.023731651966262E-2
115 83 2.068879464511876E-2
115 82 2.0370037941609104E-1
115 81 9.735059155200154E-2
116 102 1.1425246221438699E-2
116 101 1.1542235222397215E-2
116 100 1.1544802197368984E-2
116 99 1.2490736785335797E-2
116 98 3.825857190446168E-2
116 97 6.770351739642254E-2
116 96 2.3060027313213185E-2
116 95 2.2851708327952313E-2
117 110 2.221147417874421E-1
117 109 4.900182184465709E-2
117 108 2.455505322200408E-1
117 107 3.738421370295711E-2
117 106 1.2380434320744914E-2
117 105 6.668932393242279E-2
117 104 2.2847872560530672E-2
117 103 2.2786842694923287E-2
118 138 1.1292324869415928E-1
118 137 2.054773501704004E-2
118 136 3.589932905510492E-1
118 135 7.53309213786669E-2
118 134 7.161607203056655E-2
118 133 8.416707701031521E-2
118 132 2.268378480140461E-2
118 131 1.7835203778776243E-1
118 130 1.5147764902851643E-1
118 129 8.50758114709667E-2
118 128 8.554779142108053E-2
118 127 1.9779732526104623E-2
118 126 2.54109146602843E-1
118 125 1.1516616349270067E-1
118 124 1.1443958826279453E-1
119 148 3.311259865031941E-2
119 147 1.455155518025399E-2
119 146 1.7436183550861303E-1
119 145 1.5665163185355804E-1
119 144 5.273738228473209E-2
119 143 5.1800275410427365E-2
119 142 2.1129348934164127E-2
119 141 2.437436268446042E-1
119 140 8.675521030184537E-2
119 139 8.65872433597686E-2
120 160 2.2911975343183528E-2
120 159 3.384207591935985E-3
120 158 3.400439923921936E-3
120 157 3.276446251110835E-2
120 156 1.1185056050935763E-2
120 155 3.084980675772616E-3
120 154 3.283790195640577E-3
120 153 3.112371445749992E-3
120 152 3.0613332323926002E-3
120 151 3.193045054664414E-3
120 150 2.771080202891871E-3
120 149 2.9243282756527536E-3
121 172 2.2828061722704737E-2
121 171 3.360490600939542E-3
121 170 3.37590505273445E-3
121 169 3.284697375562211E-2
121 168 1.101963265721422E-2
121 167 3.0610250117246336E-3
121 166 3.2242060397515778E-3
121 165 3.0616065195109505E-3
121 164 3.005930366591269E-3
121 163 3.1357856696283513E-3
121 162 2.720042187126758E-3
121 161 2.8714351243644257E-3
122 181 2.5726727078851548E-2
122 180 4.487464427630933E-3
122 179 1.9333317110347543E-2
122 178 9.165469023830182E-3
122 177 9.162609072370822E-3
122 176 3.557168329956911E-3
122 175 3.992941355555968E-3
122 174 4.024897882782459E-3
122 173 4.027075074620219E-3
123 208 1.6638149553402804E-2
123 207 1.5610286518202498E-3
123 206 6.3694373463303085E-3
123 205 2.555434373560303E-3
123 204 2.5363245545951666E-3
123 203 7.8030597832832675E-3
123 202 1.2043913424122504E-3
123 201 3.7044862400238275E-3
123 200 6.246968287262994E-3
124 12 1.9801593809987634E-3
124 11 1.991699064582859E-3
124 10 2.1966389139081114E-3
124 9 2.177189283608992E-3
124 8 1.995414264612225E-3
124 7 2.172177291780847E-3
124 6 2.824694266557783E-2
124 5 2.3299286791588713E-3
124 4 2.3427279654698774E-3
124 3 2.341758525069941E-3
124 2 2.3867951550619573E-2
124 1 5.181065740396734E-3
125 24 1.9951066709992553E-3
125 23 2.007227059463443E-3
125 22 2.2141748980222123E-3
125 21 2.194200887767262E-3
125 20 2.0100701128934985E-3
125 19 2.1887026543491324E-3
125 18 2.8753380095016285E-2
125 17 2.3476509360497735E-3
125 16 2.359948289064741E-3
125 15 2.359400838141469E-3
125 14 2.3877156774160812E-2
125 13 5.255865190193598E-3
126 38 2.420771270668317E-3
126 37 2.446804180304302E-3
126 36 2.4481473573852736E-3
126 35 2.6204977188080455E-3
126 34 2.5951962286734683E-3
126 33 4.318086236460214E-3
126 32 2.6949080605829213E-3
126 31 2.8241772591825237E-3
126 30 1.881319290931991E-2
126 29 3.012865731830473E-3
126 28 2.831186850502696E-3
126 27 2.133032429397513E-2
126 26 4.795992375407183E-3
126 25 4.802618526722469E-3
127 66 2.0977868731549116E-3
127 65 2.145392378597982E-3
127 64 2.1463793906085823E-3
127 63 1.0406978364431276E-2
127 62 2.1021735759091022E-3
127 61 2.4127963923090538E-3
127 60 1.710618037929165E-2
127 59 5.938011456106684E-3
127 58 5.958658508466808E-3
128 80 3.362191130200152E-1
128 79 3.6303195483515005E-1
128 78 6.701696318314371E-2
128 77 2.60986879421034E-1
128 76 3.2885659079559537E-1
128 75 4.7271914260483244E-2
128 74 1.6876730535388226E-1
128 73 2.0041612250186225E-1
128 72 1.2415282830496017E-1
128 71 1.2389967339956696E-1
128 70 4.468704933526106E-1
128 69 4.226152660276854E-2
128 68 1.5107130016135967E-1
128 67 1.5413390457661036E-1
129 94 3.380028977649149E-1
129 93 3.646978317167083E-1
129 92 6.665103769730739E-2
129 91 2.643256507049825E-1
129 90 3.2781068917189693E-1
129 89 4.727273451503087E-2
129 88 1.7089378663798288E-1
129 87 1.9953006231120304E-1
129 86 1.283817872028394E-1
129 85 1.2561135791180422E-1
129 84 4.52803044423504E-1
129 83 4.289618801892983E-2
129 82 1.540031144373138E-1
129 81 1.566893551574703E-1
130 102 4.2421269194251227E-1
130 101 3.827326134014746E-1
130 100 3.958749255322734E-1
130 99 4.6228606411292744E-1
130 98 7.588800064088706E-2
130 97 3.0516600544506556E-1
130 96 3.152031616205927E-1
130 95 3.1557414935796196E-1
131 110 2.218286168054839E-2
131 109 2.2396863778874076E-2
131 108 2.236115037815663E-2
131 107 1.8013582948704243E-1
131 106 2.3613143200705154E-2
131 105 2.2110337124583324E-2
131 104 3.997678807776976E-2
131 103 4.1660930834508225E-2
132 123 3.52051765405526E-1
132 122 2.8638517825238224E-1
132 121 2.383823470935291E-1
132 120 2.4062229301462093E-1
132 119 3.018486398760354E-1
132 118 4.557719043737259E-2
132 117 1.6481013045641227E-1
132 116 6.105212794597197E-2
132 115 1.4504020930336192E-1
132 114 1.4495352498141328E-1
132 113 1.1070438786929299E-1
132 112 1.0149111070481312E-1
132 111 9.909172481919476E-2
133 148 3.1799140237602636E-1
133 147 1.134625313583131E-1
133 146 1.5118419101353045E-1
133 145 2.685385635683065E-1
133 144 1.525592281106033E-1
133 143 1.5157856429160887E-1
133 142 3.040170119331022E-1
133 141 8.750062841578791E-2
133 140 1.2438061661370442E-1
133 139 1.2559334410136885E-1
134 160 3.398792598164615E-2
134 159 1.8150230605688108E-3
134 158 1.5674307068696644E-2
134 157 2.787661620378427E-3
134 156 4.646832280155233E-3
134 155 1.654541252516157E-3
134 154 1.7611670588292194E-3
134 153 1.6692315094832932E-3
134 152 1.6418586218286966E-3
134 151 1.7124984949093323E-3
134 150 1.4861897015180454E-3
134 149 1.5683799272924667E-3
135 172 3.422437189217796E-2
135 171 1.7938981606867902E-3
135 170 1.5260482557458188E-2
135 169 2.7785432742685203E-3
135 168 4.6944697189482505E-3
135 167 1.6340373446703984E-3
135 166 1.7211466929169528E-3
135 165 1.6343477653417158E-3
135 164 1.6046267036941072E-3
135 163 1.6739461028343753E-3
135 162 1.4520137848660958E-3
135 161 1.5328304107408096E-3
136 181 2.170668302463864E-3
136 180 8.791974948384911E-5
136 179 8.171403492585909E-5
136 178 1.334557875313516E-4
136 177 1.307046585207855E-4
136 176 6.969310921241133E-5
136 175 7.823090507917761E-5
136 174 7.885700694882744E-5
136 173 7.889966314455693E-5
137 194 8.192373163891134E-2
137 193 5.745157470330279E-3
137 192 2.3124126482726718E-2
137 191 2.320129083937525E-2
137 190 2.360824858958473E-2
137 189 5.505213444025636E-3
137 188 5.431489396303143E-3
137 187 5.329589535689738E-3
137 186 5.831641519780111E-3
137 185 5.836260569986815E-3
137 184 4.820247987648076E-3
137 183 5.113282954453883E-3
137 182 5.113457327551677E-3
138 208 3.437512133990404E-2
138 207 4.500447381276135E-3
138 206 5.280106786571798E-3
138 205 4.623479786183309E-3
138 204 4.611289303694657E-3
138 203 6.90784634122608E-2
138 202 8.505921657199282E-3
138 201 2.8334727239492694E-2
138 200 2.4785710483142258E-2
139 12 1.7864021377255411E-3
139 11 1.796812671150839E-3
139 10 1.9816992961633785E-3
139 9 1.9641527989077926E-3
139 8 1.8001643413942667E-3
139 7 1.9596312270575783E-3
139 6 2.101897239444388E-3
139 5 3.3315605013754614E-2
139 4 2.1134936337871535E-3
139 3 2.1126190524683656E-3
139 2 1.685795150490731E-2
139 1 4.003783093011844E-3
140 24 1.8161074237442764E-3
140 23 1.8271403814244045E-3
140 22 2.0155210386582217E-3
140 21 1.997339079350857E-3
140 20 1.8297283585563934E-3
140 19 1.9923341426859205E-3
140 18 2.136960082199014E-3
140 17 3.421834588246978E-2
140 16 2.1482157669677196E-3
140 15 2.1477174328684246E-3
140 14 1.673650999952314E-2
140 13 4.133680955540611E-3
141 38 1.7164261983381788E-3
141 37 1.7348845998648292E-3
141 36 1.735836967549757E-3
141 35 1.8580404484087433E-3
141 34 2.187115942305733E-3
141 33 1.7338287224573064E-3
141 32 1.9108004351110121E-3
141 31 1.910680010983587E-3
141 30 2.1358240150672523E-3
141 29 1.6421339228564227E-2
141 28 1.3603864687999217E-2
141 27 2.0102875467898932E-3
141 26 3.2180785176651404E-3
141 25 3.225508917252401E-3
142 57 4.687268169388954E-3
142 56 4.800752171569123E-3
142 55 4.799239728758411E-3
142 54 1.9741057444714053E-2
142 53 5.3128359268702265E-3
142 52 4.681525806820589E-3
142 51 2.7152467960384927E-2
142 50 9.536385318698567E-3
142 49 9.49274298895281E-3
143 80 2.9556786129164653E-2
143 79 3.48927979379874E-2
143 78 3.2599485170736284E-2
143 77 3.358046397640371E-2
143 76 3.649898595436088E-2
143 75 2.539365760615347E-1
143 74 1.2140724563484785E-1
143 73 1.0333086539363026E-1
143 72 1.581193126001674E-1
143 71 9.554898300712537E-2
143 70 3.1947486104809214E-2
143 69 4.4323663534845736E-1
143 68 1.0338661027266789E-1
143 67 1.2518726883744377E-1
144 94 2.975301978998591E-2
144 93 3.510206328662079E-2
144 92 3.2803228202393835E-2
144 91 3.381045045659104E-2
144 90 3.67593954353747E-2
144 89 2.547136100447797E-1
144 88 1.2463152420983437E-1
144 87 1.1446945335595601E-1
144 86 1.5941848372757605E-1
144 85 9.777695042582225E-2
144 84 3.2622543232535876E-2
144 83 4.496702824739747E-1
144 82 1.0494970493323953E-1
144 81 1.2698670375950627E-1
145 102 1.9124560430547416E-2
145 101 1.9320386688920933E-2
145 100 1.9324683512553422E-2
145 99 2.0908070237031232E-2
145 98 1.6670264259518117E-1
145 97 1.9427180201618915E-2
145 96 3.67886091101324E-2
145 95 3.5864818016539984E-2
146 110 6.55176082223187E-2
146 109 6.614966849654161E-2
146 108 6.604418812028592E-2
146 107 7.541597213192096E-2
146 106 4.560482108091077E-1
146 105 2.933122973331248E-1
146 104 3.162294759154794E-1
146 103 3.135390313917426E-1
147 123 1.3758793154120472E-2
147 122 1.5086995635343227E-2
147 121 1.6115802111995557E-2
147 120 1.6120162896984848E-2
147 119 1.62550882908282E-2
147 118 7.923680060268576E-2
147 117 2.7047202297847444E-2
147 116 8.262544376311141E-2
147 115 3.519255612438764E-2
147 114 3.5299961281205695E-2
147 113 5.417219145839845E-2
147 112 4.40949434017788E-2
147 111 4.5194378778678955E-2
148 138 6.926402169087802E-2
148 137 1.9473222261535006E-1
148 136 3.454821916115413E-2
148 135 1.0874770326319422E-1
148 134 1.0848189983574208E-1
148 133 1.6798603803596876E-1
148 132 1.0448745693502626E-1
148 131 1.2148200618142853E-1
148 130 8.414114715570764E-2
148 129 8.360186588533752E-2
148 128 8.34222783064454E-2
148 127 2.961737520685328E-1
148 126 5.401630523222182E-2
148 125 9.261017929763107E-2
148 124 9.202188038971972E-2
149 24 1.4391904969241515E-5
149 23 1.4479336624652459E-5
149 22 1.5972175914611832E-5
149 21 1.5828091359323405E-5
149 20 1.4499845279844984E-5
149 19 1.578842929312782E-5
149 18 1.6934530426984976E-5
149 17 1.6935018895835186E-5
149 16 1.7023727103038957E-5
149 15 1.7019778010101934E-5
149 14 2.2074630264114317E-4
149 13 1.628107547529736E-5
150 38 1.0222723588649762E-5
150 37 1.0332658485284378E-5
150 36 1.0338330614739875E-5
150 35 1.1066152415410232E-5
150 34 1.0959306244869171E-5
150 33 1.0326369870666952E-5
150 32 1.138038134125646E-5
150 31 1.1379664116962597E-5
150 30 1.2720581031198413E-5
150 29 2.812182429755291E-5
150 28 9.293901092919184E-5
150 27 1.197290856107576E-5
150 26 4.299253236886189E-5
150 25 1.282467172606398E-5
151 94 4.503245953755228E-3
151 93 5.312846412892124E-3
151 92 4.964907956074377E-3
151 91 5.117355323526887E-3
151 90 5.5636906749396515E-3
151 89 2.420445035716127E-2
151 88 2.427920023227082E-2
151 87 5.944365910609691E-3
151 86 7.7646690994041465E-3
151 85 1.5815918103274675E-2
151 84 4.937560518229056E-3
151 83 5.047713490582401E-3
151 82 5.522490211008211E-3
151 81 7.044132918001988E-3
152 102 1.6886710947843693E-4
152 101 1.7059622708778563E-4
152 100 1.7063416742055262E-4
152 99 1.846152437605877E-4
152 98 7.781794991912651E-4
152 97 1.7153919839768054E-4
152 96 4.034338656444328E-4
152 95 1.923821235482738E-4
153 110 3.347718427796758E-5
153 109 3.3800144759112475E-5
153 108 3.37462480115139E-5
153 107 3.8534898709906455E-5
153 106 3.563568838393899E-5
153 105 3.621551486554769E-4
153 104 9.49240605966106E-5
153 103 3.738011338305044E-5
154 123 7.349212865069024E-3
154 122 8.058667731718835E-3
154 121 8.608201234344049E-3
154 120 8.610530532908693E-3
154 119 8.682600476046189E-3
154 118 6.5365996845372E-2
154 117 9.111065697000148E-3
154 116 1.7100782574109834E-2
154 115 7.687831007144343E-2
154 114 9.062496272351296E-3
154 113 1.1221018914081823E-2
154 112 2.2375677084636544E-2
154 111 7.680650181446598E-3
155 138 2.422118370370813E-2
155 137 7.1307106208977735E-3
155 136 1.9132495579245515E-3
155 135 4.054519465889847E-2
155 134 2.1792094075147083E-3
155 133 6.347913209192318E-3
155 132 5.329279073885666E-3
155 131 4.511727203486262E-3
155 130 3.171678839695155E-3
155 129 8.432807797484813E-3
155 128 2.4254177573761275E-3
155 127 2.865437607588204E-3
155 126 3.2511625893756925E-3
155 125 5.059028969100837E-3
155 124 2.2333561636999426E-3
156 172 2.2083421147273655E-1
156 171 2.1885607422234926E-1
156 170 1.953371656712912E-1
156 169 1.949858036573672E-1
156 168 3.378011827139226E-1
156 167 1.3416460543556777E-1
156 166 1.8522562674848675E-1
156 165 8.881014400519009E-2
156 164 8.719510721749676E-2
156 163 3.404220910758167E-1
156 162 7.890215048846533E-2
156 161 8.329371043314224E-2
157 181 2.5167373080527694E-1
157 180 2.632163827465499E-1
157 179 1.789911183527337E-1
157 178 4.8876129421336845E-1
157 177 7.308674882565576E-2
157 176 8.25335717036839E-2
157 175 1.676461895700257E-1
157 174 3.9129100099122194E-1
157 173 6.590209814936716E-2
158 194 2.5033523212575204E-1
158 193 1.9919451887466075E-1
158 192 1.7851531571432208E-1
158 191 4.8945230130848427E-1
158 190 7.308363995551605E-2
158 189 1.98212074762199E-1
158 188 1.777637806624992E-1
158 187 1.7229031512117857E-1
158 186 5.402777405633636E-1
158 185 7.05375758660485E-2
158 184 1.3213819585881353E-1
158 183 3.3374518206918974E-1
158 182 6.180171016264149E-2
159 199 1.6044653023541505E-1
159 198 1.5149862145693305E-1
159 197 2.4867008931400425E-1
159 196 4.4930745914105635E-1
159 195 7.070766205360003E-2
160 208 1.6354310753731993E-1
160 207 2.3107662410613988E-1
160 206 2.3037652055978475E-1
160 205 4.5964405349697174E-1
160 204 7.367770474717913E-2
160 203 1.4372727229668622E-1
160 202 1.256194318305943E-1
160 201 3.463692975640375E-1
160 200 5.6833845277743066E-2
161 12 1.3469823481500574E-5
161 11 1.3548320951149577E-5
161 10 1.4942402468640414E-5
161 9 1.4810098428155833E-5
161 8 1.3573593204016812E-5
161 7 1.4776004887068354E-5
161 6 1.5848718602417546E-5
161 5 1.5849091913463193E-5
161 4 1.5936157696628323E-5
161 3 1.5929563181465414E-5
161 2 2.1287825727193453E-4
161 1 1.5237436238643651E-5
162 38 9.602469823470188E-6
162 37 9.705734527668226E-6
162 36 9.711062506211215E-6
162 35 1.0394724430276203E-5
162 34 1.029436104673397E-5
162 33 9.699827468598144E-6
162 32 1.0689887823077905E-5
162 31 1.4732867435684902E-4
162 30 1.1948772206333689E-5
162 29 3.5146912003773024E-5
162 28 9.255607894949709E-5
162 27 1.1246464032789453E-5
162 26 1.2045625007839636E-5
162 25 2.7175770408938948E-5
163 80 4.6149474065586005E-3
163 79 5.448103411777784E-3
163 78 5.090029372151055E-3
163 77 5.243197770613592E-3
163 76 5.6988909361119725E-3
163 75 2.4397752123964653E-2
163 74 2.5128465788645114E-2
163 73 5.948247130905287E-3
163 72 7.877201498459796E-3
163 71 1.58898065280486E-2
163 70 4.988227322860934E-3
163 69 5.095559796140166E-3
163 68 5.448773341417727E-3
163 67 7.021928077872484E-3
164 102 1.433462520809509E-4
164 101 1.4481404844149062E-4
164 100 1.4484625485825021E-4
164 99 1.5671437352026595E-4
164 98 6.711450602472781E-4
164 97 1.456145086584671E-4
164 96 1.6334019489039228E-4
164 95 4.037899805797346E-4
165 110 5.122693436751226E-5
165 109 5.172112991375473E-5
165 108 5.163865687393962E-5
165 107 5.896627119773274E-5
165 106 5.452988682762628E-5
165 105 2.160794222552311E-4
165 104 5.729788849879483E-5
165 103 3.752046849154083E-4
166 123 7.329042336127095E-3
166 122 8.036550044600448E-3
166 121 8.584575306598702E-3
166 120 8.586898212208757E-3
166 119 8.658770353363838E-3
166 118 6.549620784360212E-2
166 117 9.436811338002279E-3
166 116 1.7256998452622258E-2
166 115 9.034088270029116E-3
166 114 7.663800579328779E-2
166 113 1.1203119401369432E-2
166 112 7.657759798512841E-3
166 111 2.1870133291211336E-2
167 138 2.5033944805842534E-2
167 137 7.134845623090071E-3
167 136 1.9175687463269186E-3
167 135 2.1828943145290585E-3
167 134 4.0194317406553E-2
167 133 6.38360300800347E-3
167 132 5.54070770845877E-3
167 131 4.583664182703411E-3
167 130 3.155124399035305E-3
167 129 2.4309549538324947E-3
167 128 8.382883749687528E-3
167 127 2.718028821703701E-3
167 126 3.3411902929227602E-3
167 125 2.238910452100295E-3
167 124 5.28634196223452E-3
168 160 2.208713951356661E-1
168 159 2.1944879432012587E-1
168 158 1.9496144619523853E-1
168 157 1.9519762729802E-1
168 156 3.3783241263868485E-1
168 155 1.3318395096866445E-1
168 154 1.8858717528609947E-1
168 153 8.962340896211288E-2
168 152 8.81537197723244E-2
168 151 3.3980195597326884E-1
168 150 7.979563449270329E-2
168 149 8.420854437094392E-2
169 181 2.4921240656902743E-1
169 180 2.6205139885586803E-1
169 179 1.7841699324038635E-1
169 178 7.295613464738507E-2
169 177 4.895054802042066E-1
169 176 8.386205009791466E-2
169 175 1.684119987413193E-1
169 174 6.575379236225161E-2
169 173 3.898244148448037E-1
170 194 2.5061921892323236E-1
170 193 1.9914039802382374E-1
170 192 1.7851934275609818E-1
170 191 7.29584282135533E-2
170 190 4.8734634252032755E-1
170 189 1.9649813282418885E-1
170 188 1.5815080322189612E-1
170 187 1.580635692805226E-1
170 186 7.036178776656633E-2
170 185 5.398834211743194E-1
170 184 1.2240081363354406E-1
170 183 6.169441808303254E-2
170 182 3.514040424079568E-1
171 199 1.6295894764838814E-1
171 198 1.5160058441548682E-1
171 197 2.4897322965698637E-1
171 196 7.078016687852699E-2
171 195 4.50170661057409E-1
172 208 1.640157413377857E-1
172 207 2.3167862376322573E-1
172 206 2.3100497618320345E-1
172 205 7.371760604282142E-2
172 204 4.594658124336727E-1
172 203 1.4460994280358644E-1
172 202 1.2702442980788672E-1
172 201 5.6854847424084316E-2
172 200 3.2886861810874224E-1
173 80 3.881658478389649E-4
173 79 4.582430727036342E-4
173 78 4.2812526183036144E-4
173 77 4.4100834283077587E-4
173 76 4.793369538326518E-4
173 75 9.438511164859161E-4
173 74 1.580393887081485E-2
173 73 4.692796096291119E-4
173 72 4.6982320613291626E-4
173 71 4.5043921890269503E-4
173 70 4.1956263363696425E-4
173 69 4.28590428933586E-4
173 68 4.1519609895665895E-4
173 67 4.340517652006769E-4
174 94 3.5905720461686845E-4
174 93 4.2360905914567125E-4
174 92 3.9586689028200765E-4
174 91 4.080219726760869E-4
174 90 4.4360961884191876E-4
174 89 8.424324386670925E-4
174 88 1.4772245238454901E-2
174 87 4.412996745158964E-4
174 86 4.41138446545251E-4
174 85 4.2285313973635123E-4
174 84 3.93686397658018E-4
174 83 4.0246922203394394E-4
174 82 3.8979296676205856E-4
174 81 4.0745924630426603E-4
175 123 7.247773496918817E-3
175 122 7.947435933450554E-3
175 121 8.489384361006214E-3
175 120 8.491681508838667E-3
175 119 8.562756688369678E-3
175 118 4.759962776560549E-2
175 117 1.4207503274435969E-2
175 116 4.6687698260719654E-2
175 115 1.9608340742237662E-2
175 114 1.964273053309263E-2
175 113 3.225853697632555E-2
175 112 2.5209168123512184E-2
175 111 2.3866787818739094E-2
176 138 6.813376795375071E-5
176 137 7.908842195701055E-5
176 136 6.919314311594996E-5
176 135 7.876709453130199E-5
176 134 7.8811646807518E-5
176 133 8.369069036223903E-5
176 132 8.369219609871704E-4
176 131 8.306038008470452E-5
176 130 8.959835110804308E-5
176 129 9.683014239627417E-5
176 128 9.683414839668595E-5
176 127 7.613237327248331E-5
176 126 7.42377114462886E-5
176 125 8.078836893473269E-5
176 124 8.076987762715743E-5
177 160 2.1280452545698098E-1
177 159 1.9632655879741148E-1
177 158 4.049193984636287E-1
177 157 5.479889502400153E-2
177 156 1.5512191276521478E-1
177 155 6.53842486746296E-2
177 154 4.265272054787549E-1
177 153 5.015490457716086E-2
177 152 4.93324395323076E-2
177 151 1.173191942324364E-1
177 150 4.4655101607967096E-2
177 149 4.712464696909405E-2
178 172 2.1163156910377715E-1
178 171 1.9789863165481444E-1
178 170 4.0514291767113814E-1
178 169 5.474779684439649E-2
178 168 1.5475387798802323E-1
178 167 6.58063284635222E-2
178 166 4.2367794800780845E-1
178 165 4.965230910869584E-2
178 164 4.8749368271219236E-2
178 163 1.1652937618962303E-1
178 162 4.411291085357509E-2
178 161 4.656816069338756E-2
179 194 1.4293128042826017E-1
179 193 1.8377067916139675E-1
179 192 2.5926918242010094E-1
179 191 1.1075837096228301E-1
179 190 1.1089427563826199E-1
179 189 1.1577041170348697E-1
179 188 3.6629740768652536E-1
179 187 3.88041698093838E-1
179 186 1.0264574474711166E-1
179 185 1.047886448100343E-1
179 184 3.9303815474776366E-1
179 183 2.872461498124461E-1
179 182 2.8435912284026127E-1
180 199 2.0584735605611948E-1
180 198 4.719090872744274E-1
180 197 6.824386996566659E-2
180 196 2.3483324605088907E-1
180 195 2.3422469967261517E-1
181 208 1.143594259800462E-1
181 207 3.6613232264239987E-1
181 206 5.6320750536777535E-2
181 205 1.781358127108331E-1
181 204 1.783481469863267E-1
181 203 1.304482482180816E-1
181 202 3.1271881681171904E-1
181 201 1.3341047700385691E-1
181 200 1.3800840619062216E-1
182 12 6.269176091073175E-5
182 11 6.30571067971193E-5
182 10 6.954549362005259E-5
182 9 6.892971916057474E-5
182 8 6.317472987039893E-5
182 7 6.877103971467168E-5
182 6 7.376370438178449E-5
182 5 7.3765441860145E-5
182 4 7.41706667147387E-5
182 3 7.413997427333566E-5
182 2 1.9189034979494141E-3
182 1 7.091865092942916E-5
183 24 6.162616560294231E-5
183 23 6.200054812470086E-5
183 22 6.839288892310344E-5
183 21 6.777591857178386E-5
183 20 6.208836622688326E-5
183 19 6.760608552572443E-5
183 18 7.251369285246482E-5
183 17 7.251578447704957E-5
183 16 7.289563319611514E-5
183 15 7.287872317233173E-5
183 14 1.9753725554048996E-3
183 13 6.971559745419552E-5
184 38 2.626672287939997E-4
184 37 2.65491945162036E-4
184 36 2.6563768739134663E-4
184 35 2.8433866602782293E-4
184 34 8.58993329930016E-4
184 33 7.753234697071099E-4
184 32 5.510665573973539E-4
184 31 1.1971144689062762E-3
184 30 3.268482943062466E-4
184 29 9.997588984260405E-4
184 28 4.711155878276757E-3
184 27 3.0763726369687633E-4
184 26 4.928428362572954E-4
184 25 5.126980794640169E-4
185 80 3.514729086582427E-3
185 79 4.149258017734072E-3
185 78 3.876549982007045E-3
185 77 3.993202541136201E-3
185 76 4.340256988833219E-3
185 75 4.258305035171354E-2
185 74 4.259837249641931E-3
185 73 9.877512250629326E-3
185 72 3.28917036736246E-2
185 71 1.2190261107332501E-2
185 70 3.7990178690288593E-3
185 69 3.8807619351114374E-3
185 68 2.819830381500757E-2
185 67 1.3765621005449495E-2
186 94 3.460993570947352E-3
186 93 4.083216299371109E-3
186 92 3.8158063523022886E-3
186 91 3.932970585408635E-3
186 90 4.27600398788978E-3
186 89 4.24037967056154E-2
186 88 4.255387057731343E-3
186 87 9.634317617613271E-3
186 86 3.30555014258422E-2
186 85 1.1948081050385686E-2
186 84 3.794788333847043E-3
186 83 3.8794469851955787E-3
186 82 2.8582787473267833E-2
186 81 1.3581622313991074E-2
187 102 2.3626313576994326E-3
187 101 2.3868235612470347E-3
187 100 2.387354387055528E-3
187 99 2.5829645889319003E-3
187 98 1.1284087853271084E-2
187 97 2.4000167377812315E-3
187 96 3.547373188067559E-3
187 95 3.581904398682175E-3
188 110 5.345731058878708E-4
188 109 5.397302297980288E-4
188 108 5.388695913547894E-4
188 107 6.153361142139587E-4
188 106 5.690407072972362E-4
188 105 1.0539335926518345E-2
188 104 1.4101305750488901E-3
188 103 1.2855844964159845E-3
189 138 5.921788782300903E-2
189 137 5.525066624538871E-3
189 136 4.8337887672696075E-3
189 135 1.872685693279706E-2
189 134 1.9183700245492367E-2
189 133 3.0619970588945646E-2
189 132 6.099427611876844E-3
189 131 3.683385673770753E-2
189 130 1.5995738082898652E-2
189 129 1.1502136651996078E-2
189 128 1.1493337951662252E-2
189 127 1.657872939429748E-2
189 126 3.568090888990274E-2
189 125 1.944651034615595E-2
189 124 2.0062996774022627E-2
190 160 2.1250079320858076E-1
190 159 2.332398130735115E-1
190 158 5.475189303156876E-2
190 157 4.0380695898663715E-1
190 156 1.5471527793564208E-1
190 155 2.775271209858802E-1
190 154 5.2873667393735335E-2
190 153 6.233266976835321E-1
190 152 5.860886558654744E-1
190 151 2.1247016644287187E-1
190 150 5.142831187902118E-1
190 149 5.714139915924291E-1
191 172 2.1348849486838384E-1
191 171 2.3286971174356266E-1
191 170 5.4790711788609156E-2
191 169 4.035250259740258E-1
191 168 1.5501334498577962E-1
191 167 2.724291716266781E-1
191 166 5.232864701808825E-2
191 165 6.147393537560447E-1
191 164 5.838323147597235E-1
191 163 2.0407893186526335E-1
191 162 5.059373275212924E-1
191 161 5.682775372822234E-1
192 181 1.428847951504469E-1
192 180 1.3461307873498457E-1
192 179 2.5927128846572034E-1
192 178 1.1089007648124577E-1
192 177 1.1077728777284329E-1
192 176 4.791990637970373E-2
192 175 2.0675006581245864E-1
192 174 1.28137279047986E-1
192 173 1.1681510706133515E-1
193 199 3.67913128763626E-2
193 198 3.386137300916759E-2
193 197 2.710768548746797E-1
193 196 8.116077513081332E-2
193 195 8.09034386672552E-2
194 208 1.817763623271188E-1
194 207 5.647170464026237E-2
194 206 3.659359520330285E-1
194 205 1.7863246726479393E-1
194 204 1.787668246932535E-1
194 203 1.0743461323731825E-1
194 202 4.357000884044339E-2
194 201 7.861517862419502E-2
194 200 8.019743123956866E-2
195 160 1.1829633471697801E-1
195 159 1.6473648635453687E-2
195 158 7.303949738537657E-2
195 157 6.1984837020586214E-2
195 156 5.6629055868294004E-2
195 155 1.5017071594821914E-2
195 154 1.5984836747140616E-2
195 153 1.5150404408546763E-2
195 152 1.4901960549536918E-2
195 151 1.5543107471614453E-2
195 150 1.3489066602142974E-2
195 149 1.4235047702929708E-2
196 172 1.1868826269881978E-1
196 171 1.659070632228613E-2
196 170 7.330397777915618E-2
196 169 6.274474857279223E-2
196 168 5.6903630567326814E-2
196 167 1.5112247896333132E-2
196 166 1.5917870894536685E-2
196 165 1.511511879408366E-2
196 164 1.4840246219827128E-2
196 163 1.5481340468529198E-2
196 162 1.3428819321271709E-2
196 161 1.4176244640740302E-2
197 181 1.5612026592116748E-1
197 180 2.137309975533987E-2
197 179 7.416987915739186E-2
197 178 8.480790670449287E-2
197 177 8.460599666154403E-2
197 176 1.694224317290958E-2
197 175 1.901776276688483E-2
197 174 1.9169966768779634E-2
197 173 1.9180336397126647E-2
198 194 6.851075105325617E-2
198 193 1.0574513644466151E-2
198 192 4.3405307724872486E-2
198 191 2.6685516671418056E-2
198 190 2.6654455245600606E-2
198 189 1.0132873638396706E-2
198 188 9.997177453811193E-3
198 187 9.809620981775326E-3
198 186 1.0733695836713941E-2
198 185 1.0742197641875506E-2
198 184 8.872128984858759E-3
198 183 9.411487961665979E-3
198 182 9.411808912085765E-3
199 208 9.979894618284935E-2
199 207 2.1733949100542944E-2
199 206 1.5325964809442568E-2
199 205 1.6605006425627875E-2
199 204 1.666043052000852E-2
199 203 1.0745615413423575E-1
199 202 8.566015141535267E-2
199 201 5.451169615055511E-2
199 200 6.50180970583638E-2
200 80 2.2711387256955416E-4
200 79 2.681157020879131E-4
200 78 2.5049392341050584E-4
200 77 2.580317488861907E-4
200 76 2.804576251535418E-4
200 75 6.382360396288822E-3
200 74 3.225192603937478E-3
200 73 2.7457312397306046E-4
200 72 2.7489117953560316E-4
200 71 2.635497067342126E-4
200 70 2.454839730009003E-4
200 69 2.507660903278002E-4
200 68 2.4292913566403905E-4
200 67 2.539614905309065E-4
201 94 2.2097824799477417E-4
201 93 2.607060560854358E-4
201 92 2.436324093454713E-4
201 91 2.5111313602951563E-4
201 90 2.7301520511172447E-4
201 89 6.345880444323253E-3
201 88 3.0908834495512855E-3
201 87 2.715935724482759E-4
201 86 2.714943462692079E-4
201 85 2.6024083287156096E-4
201 84 2.422904464670801E-4
201 83 2.476957499064272E-4
201 82 2.398942724674638E-4
201 81 2.50766811582752E-4
202 123 1.2129798715084942E-3
202 122 1.3300746527850306E-3
202 121 1.4207745807422382E-3
202 120 1.4211590290260912E-3
202 119 1.4330540975145889E-3
202 118 3.266277658262586E-2
202 117 1.3318641258846817E-3
202 116 1.331911170579E-3
202 115 4.169173984950346E-3
202 114 4.158209660539731E-3
202 113 1.197880878486946E-3
202 112 1.2673836594797835E-3
202 111 1.267683252784009E-3
203 138 6.41697094897293E-2
203 137 1.1656371086103352E-2
203 136 9.922813351586983E-4
203 135 1.2503672064352312E-2
203 134 1.3379017009963301E-2
203 133 2.3053692916348107E-3
203 132 4.1172304817197235E-3
203 131 1.1911478672261791E-3
203 130 1.2849072532595013E-3
203 129 1.7396173684430687E-3
203 128 1.715354265959026E-3
203 127 1.091795076761097E-3
203 126 1.0646242115292597E-3
203 125 1.1585655309445104E-3
203 124 1.1583003517873958E-3
204 160 2.5917087678241038E-2
204 159 1.8607993771484338E-1
204 158 1.0528311845599504E-1
204 157 1.0587617248421517E-1
204 156 9.009730034791026E-2
204 155 2.840823393856196E-1
204 154 1.4156250752910038E-1
204 153 2.384130041381883E-2
204 152 2.3450338924019872E-2
204 151 1.1842769700514894E-1
204 150 2.122695081210369E-2
204 149 2.240085739883841E-2
205 172 2.591686010028893E-2
205 171 1.8542465462477492E-1
205 170 1.0590183241617444E-1
205 169 1.0530406192392387E-1
205 168 9.01387554973417E-2
205 167 2.872327766344645E-1
205 166 1.3962347861486127E-1
205 165 2.3621977729434248E-2
205 164 2.319240559599779E-2
205 163 1.186104300053222E-1
205 162 2.0986621095154118E-2
205 161 2.21547008496985E-2
206 181 2.640790314902428E-2
206 180 1.826968324485763E-1
206 179 9.561201949682781E-2
206 178 9.600293991995425E-2
206 177 9.631655033122355E-2
206 176 4.5908597604872764E-1
206 175 2.0672110806774419E-1
206 174 1.7561574821281886E-1
206 173 1.7589783015714777E-1
207 194 2.652688645903148E-2
207 193 2.1398745961440488E-1
207 192 9.578885617151335E-2
207 191 9.634889473991656E-2
207 190 9.657737169228804E-2
207 189 2.508266657766136E-1
207 188 2.4016505238696778E-2
207 187 2.356593296327081E-2
207 186 9.449529649684685E-2
207 185 9.50270947571303E-2
207 184 2.1313769134109248E-2
207 183 2.260948662555885E-2
207 182 2.2610257653928986E-2
208 199 1.6900077656155943E-1
208 198 1.4558951751935E-2
208 197 3.187118778676913E-2
208 196 2.542075991549812E-2
208 195 2.5468504391064586E-2
