%%MatrixMarket matrix coordinate real general
%Complete acoustic radiance transfer reflection kernel, w.r.t. frequency band #2 (center freq. 250.00Hz). Includes energy losses due to surface materials and air absorption over propagation paths.
208 208 2354
1 24 1.1174812533551252E-1
1 23 1.1175622909390515E-1
1 22 1.5398989663341037E-1
1 21 1.6442285799863132E-1
1 20 1.1175812210324944E-1
1 19 3.492969387436449E-1
1 18 2.5375601294535294E-1
1 17 2.5318622328760376E-1
1 16 2.2285562225328284E-1
1 15 2.2316310805501993E-1
1 14 2.2295500269061577E-1
1 13 4.03552674243105E-1
2 38 1.7621862576325287E-1
2 37 4.9003078836422787E-1
2 36 8.335019977255911E-2
2 35 1.6078828589276306E-1
2 34 1.736431662480273E-1
2 33 1.8028565526884888E-1
2 32 4.617695697353563E-1
2 31 8.34460606746159E-2
2 30 2.9007915552966024E-1
2 29 2.8966780541025555E-1
2 28 2.209392097416064E-1
2 27 2.190495808089549E-1
2 26 5.588696812392482E-1
2 25 8.356405878365439E-2
3 43 3.155740935706386E-1
3 42 1.7119607875698795E-1
3 41 2.171960307373061E-1
3 40 5.538023876940806E-1
3 39 8.30873182006881E-2
4 48 1.444755707870912E-1
4 47 3.1880369805659275E-1
4 46 2.0374613540526715E-1
4 45 5.172584058786293E-1
4 44 7.966272049174647E-2
5 57 1.886304506667887E-1
5 56 4.265523228004859E-1
5 55 7.940192582490292E-2
5 54 2.0765867821208137E-1
5 53 2.581128794713215E-1
5 52 1.921778784578893E-1
5 51 2.501340230672938E-1
5 50 4.958561731484853E-1
5 49 7.947950003246054E-2
6 66 1.6088512087270757E-1
6 65 4.178950610104796E-1
6 64 7.938185337865583E-2
6 63 2.073134886695246E-1
6 62 1.8829557870729827E-1
6 61 2.548104720751827E-1
6 60 2.492749292624015E-1
6 59 4.958300457910409E-1
6 58 7.947947804925165E-2
7 94 8.40442580107502E-3
7 93 1.993220909486051E-2
7 92 8.414237877561884E-3
7 91 1.190341990204023E-2
7 90 2.4028186715615598E-2
7 89 2.3226284030714524E-2
7 88 2.833409695022779E-2
7 87 8.425037663570566E-3
7 86 8.425001553663011E-3
7 85 3.561524963461072E-2
7 84 8.413685397381564E-3
7 83 8.41589035970484E-3
7 82 8.41269040217715E-3
7 81 8.417119463109938E-3
8 123 1.2144937206814703E-3
8 122 3.2959178131323455E-3
8 121 2.138063808347351E-3
8 120 1.2167879234384774E-3
8 119 3.189606784551088E-3
8 118 2.1707224906292125E-3
8 117 8.558962596562029E-3
8 116 8.194786641129895E-3
8 115 4.326912365160291E-3
8 114 1.2175204440369853E-3
8 113 7.560864124710926E-3
8 112 1.94039311092571E-2
8 111 1.2151366811402097E-3
9 138 2.7682226309180824E-3
9 137 1.3037171145547706E-2
9 136 2.7687385266516153E-3
9 135 8.460384833952804E-3
9 134 2.7730555157940676E-3
9 133 8.609213182111743E-3
9 132 1.2493945047647085E-2
9 131 2.774779530621362E-3
9 130 2.7772500213590822E-3
9 129 1.634268670798965E-2
9 128 2.776559701490734E-3
9 127 2.7719144342697602E-3
9 126 2.7710802553182153E-3
9 125 2.773870121773238E-3
9 124 2.773862604393762E-3
10 148 1.491412172779184E-2
10 147 1.8746460626137E-2
10 146 3.3655372246182724E-3
10 145 3.3627541264233435E-3
10 144 1.999178730607558E-2
10 143 3.364598995533064E-3
10 142 3.3597987511433847E-3
10 141 3.358353968653413E-3
10 140 3.361705634173169E-3
10 139 3.3616898464629056E-3
11 172 1.6715234665940896E-5
11 171 1.671531926139975E-5
11 170 2.2393539284139974E-4
11 169 1.671621110182087E-5
11 168 1.670749425378255E-5
11 167 1.6696906488534478E-5
11 166 1.6707175304827E-5
11 165 1.669694415228989E-5
11 164 1.6693301569135963E-5
11 163 1.6701684654877715E-5
11 162 1.667333533200393E-5
11 161 1.6684183997884106E-5
12 194 9.893966339501337E-5
12 193 9.88892519176168E-5
12 192 5.103404412292161E-4
12 191 3.0117326824346895E-4
12 190 9.894886229625982E-5
12 189 9.883931950740462E-5
12 188 9.882349098103815E-5
12 187 9.88012159833269E-5
12 186 9.890668448833406E-5
12 185 9.890760747079928E-5
12 184 9.868228903712365E-5
12 183 9.875232270382035E-5
12 182 9.875236303831351E-5
13 12 1.1173733320647906E-1
13 11 1.1174510722271339E-1
13 10 1.522062625821815E-1
13 9 1.6402001098350402E-1
13 8 1.1174759942136966E-1
13 7 3.48394444652869E-1
13 6 2.5380320597729356E-1
13 5 2.532974488613726E-1
13 4 2.2290645077303484E-1
13 3 2.2248292914322174E-1
13 2 2.231831627650736E-1
13 1 4.0358894401886874E-1
14 38 1.7302172247521722E-1
14 37 8.320706390456051E-2
14 36 4.672589894186896E-1
14 35 1.614763608802734E-1
14 34 1.7276605525215186E-1
14 33 1.8035971660789107E-1
14 32 8.3303373521709E-2
14 31 4.604358760743846E-1
14 30 2.8724223308387525E-1
14 29 2.8856065490459504E-1
14 28 2.199401389345715E-1
14 27 2.1842857253679704E-1
14 26 8.342103230668743E-2
14 25 5.596782642539204E-1
15 43 3.14369616594101E-1
15 42 1.6963488092100662E-1
15 41 2.1573782767741545E-1
15 40 8.273524409189187E-2
15 39 5.503106536615526E-1
16 48 1.434258541150819E-1
16 47 3.191604349846739E-1
16 46 2.0357948888766975E-1
16 45 7.962388359877688E-2
16 44 5.148580547352768E-1
17 57 1.878744942319022E-1
17 56 7.94437943005766E-2
17 55 4.272977952646825E-1
17 54 2.075872350422641E-1
17 53 2.579294620193794E-1
17 52 1.9269501595710573E-1
17 51 2.5010408050348526E-1
17 50 7.952113397716773E-2
17 49 4.9660042303180824E-1
18 66 1.606846799456365E-1
18 65 7.942298003544675E-2
18 64 4.263010498322641E-1
18 63 2.0699601817364036E-1
18 62 1.8780174180285913E-1
18 61 2.5549515971437103E-1
18 60 2.4995493879936118E-1
18 59 7.95211070430152E-2
18 58 4.956465877840992E-1
19 80 8.400210581446745E-3
19 79 2.7841101412859406E-2
19 78 1.1801207909549591E-2
19 77 1.6336477132523796E-2
19 76 3.4023603304235116E-2
19 75 3.2481102536163466E-2
19 74 3.9498931924872596E-2
19 73 1.1816040074901467E-2
19 72 1.1816200542691231E-2
19 71 4.9909516788350636E-2
19 70 1.1800421749304159E-2
19 69 1.1803405596634177E-2
19 68 1.1798952850782932E-2
19 67 1.1805176997138428E-2
20 123 1.2077837100795364E-3
20 122 3.0525338098666894E-3
20 121 1.2100613741591656E-3
20 120 2.0789798256600532E-3
20 119 3.1539842570103708E-3
20 118 2.130751896243933E-3
20 117 8.367528145120089E-3
20 116 8.737839417093716E-3
20 115 1.2107881551604038E-3
20 114 4.374303452884277E-3
20 113 8.117193626592776E-3
20 112 1.2084197004447233E-3
20 111 1.6049791485717314E-2
21 138 2.7744772444122136E-3
21 137 1.2820795827510154E-2
21 136 2.7749943057775784E-3
21 135 2.7793023863896768E-3
21 134 9.941398634950796E-3
21 133 8.529218012513514E-3
21 132 1.251461208043885E-2
21 131 2.781048958990896E-3
21 130 2.783525031636853E-3
21 129 2.7828339810638827E-3
21 128 1.6433157333613366E-2
21 127 2.7781773891461213E-3
21 126 2.777341325423146E-3
21 125 2.7801374953944327E-3
21 124 2.7801299610299415E-3
22 148 1.481058694834686E-2
22 147 1.889651077667719E-2
22 146 3.358141002291934E-3
22 145 3.355364020330947E-3
22 144 3.35721814235494E-3
22 143 1.9967054806818634E-2
22 142 3.3524151398870777E-3
22 141 3.3509735325016428E-3
22 140 3.354317832284016E-3
22 139 3.354302079269377E-3
23 160 1.8604302583618555E-5
23 159 1.7429345514620507E-5
23 158 2.2652921996001453E-4
23 157 1.7430331492674535E-5
23 156 1.7421226605637224E-5
23 155 1.7410303444572537E-5
23 154 1.742094965068061E-5
23 153 1.7409895846403938E-5
23 152 1.7406473687077182E-5
23 151 1.7415180011548546E-5
23 150 1.7385723397874626E-5
23 149 1.7396964660163145E-5
24 194 1.0405997651003795E-4
24 193 1.0400695614415313E-4
24 192 5.279931499277302E-4
24 191 1.0406963772137848E-4
24 190 3.377214787320619E-4
24 189 1.0395443963807787E-4
24 188 1.0393779195578987E-4
24 187 1.0391436418517638E-4
24 186 1.0402529088309504E-4
24 185 1.0402626163163364E-4
24 184 1.0378928254649208E-4
24 183 1.0386294058676935E-4
24 182 1.0386298300864818E-4
25 12 7.791143775768599E-1
25 11 7.297503190171076E-1
25 10 3.7923568732091717E-1
25 9 4.6593986663418263E-1
25 8 7.574843896199803E-1
25 7 4.423766192253841E-1
25 6 2.445333097612213E-1
25 5 2.443185046799148E-1
25 4 4.594022441276366E-1
25 3 4.6245327984683476E-1
25 2 6.26545599392912E-2
25 1 1.8531512440759704E-1
26 24 7.700283260757579E-1
26 23 7.585143381396582E-1
26 22 3.740609093574812E-1
26 21 4.633196052657737E-1
26 20 7.584619287084654E-1
26 19 4.407336896144802E-1
26 18 2.4318114250155562E-1
26 17 2.4598926029344123E-1
26 16 4.624230753907939E-1
26 15 4.622740621122875E-1
26 14 6.260087313219598E-2
26 13 1.8487572935252747E-1
27 43 1.8818833333254703E-1
27 42 6.792254166297271E-2
27 41 3.0636153926627213E-1
27 40 1.2488363496405855E-1
27 39 1.2562718655803437E-1
28 48 6.409853795888396E-2
28 47 1.9300005863676997E-1
28 46 2.600962437745031E-1
28 45 1.1658815941022732E-1
28 44 1.1696060985384492E-1
29 57 4.8940901780840584E-1
29 56 3.9039043980457117E-1
29 55 3.81806228636798E-1
29 54 1.8636980510097872E-1
29 53 3.873737901109519E-1
29 52 4.6168647198144425E-1
29 51 6.1092317545609065E-2
29 50 1.9348404927691157E-1
29 49 1.9307015083885462E-1
30 66 4.2866378499081204E-1
30 65 3.8925252626373935E-1
30 64 3.859037735799532E-1
30 63 1.8624376612343588E-1
30 62 4.5806553403775624E-1
30 61 3.9048456273866167E-1
30 60 6.094089394156488E-2
30 59 1.9215975383877906E-1
30 58 1.9239222614446558E-1
31 80 2.6557977011020025E-3
31 79 4.446640485453912E-2
31 78 3.731051803109761E-3
31 77 5.073318323818454E-3
31 76 2.0869519573237284E-2
31 75 2.405029048125721E-2
31 74 6.967284935902712E-2
31 73 3.73574111777181E-3
31 72 3.7357918510222475E-3
31 71 5.763702424900204E-3
31 70 3.730803251891637E-3
31 69 3.7317466204896824E-3
31 68 3.7303388471867783E-3
31 67 3.732306663757801E-3
32 94 2.6546060486267423E-3
32 93 3.176637876548077E-2
32 92 2.6577052725604328E-3
32 91 3.706207163609511E-3
32 90 1.4716191828771392E-2
32 89 1.715780206253324E-2
32 88 4.96890694527457E-2
32 87 2.6611164725568507E-3
32 86 2.6611050669497005E-3
32 85 4.1141220693062495E-3
32 84 2.6575307672149E-3
32 83 2.65822722244681E-3
32 82 2.657216489910238E-3
32 81 2.6586154447252605E-3
33 123 4.107745085641668E-3
33 122 1.3924870033957147E-2
33 121 4.872774107259837E-3
33 120 4.9181911869675705E-3
33 119 1.3996757399831871E-2
33 118 8.233235014682646E-3
33 117 5.054056554017093E-2
33 116 5.019029005687173E-2
33 115 6.911026362074998E-3
33 114 6.805824373358593E-3
33 113 6.094970069342084E-2
33 112 2.478656797197833E-2
33 111 2.6544741790253856E-2
34 138 2.7102258040719914E-3
34 137 3.205850952990829E-2
34 136 2.7107308913123076E-3
34 135 5.8430010946424965E-3
34 134 5.735612124182518E-3
34 133 5.169056292948372E-3
34 132 3.432664921018369E-2
34 131 2.716645330656328E-3
34 130 2.719064062325995E-3
34 129 6.240655502814702E-3
34 128 6.217044096512099E-3
34 127 2.713840260725703E-3
34 126 2.7130235585954483E-3
34 125 2.7157549747654722E-3
34 124 2.7157476148820556E-3
35 148 9.111767252960784E-3
35 147 5.084872971362583E-2
35 146 2.56283158178692E-3
35 145 2.5607122731971933E-3
35 144 6.2367728095490535E-3
35 143 6.212857201690942E-3
35 142 2.5584617768876867E-3
35 141 2.5573615857600925E-3
35 140 2.55991385414173E-3
35 139 2.5599018319177086E-3
36 160 1.1098795878948065E-5
36 159 1.0397850029635825E-5
36 158 3.275657233825826E-4
36 157 1.0398438235999033E-5
36 156 1.0393006520283071E-5
36 155 1.0386490074183307E-5
36 154 1.0392841296861374E-5
36 153 1.0386246912750429E-5
36 152 1.0384205350178428E-5
36 151 1.0389399294844146E-5
36 150 1.0371826319937806E-5
36 149 1.0378532536147805E-5
37 172 1.0406895778664261E-5
37 171 1.0406948447749752E-5
37 170 2.928880693985898E-4
37 169 1.0407503707098442E-5
37 168 1.040207660237235E-5
37 167 1.0395484665635133E-5
37 166 1.0401878024930549E-5
37 165 1.0395508115068241E-5
37 164 1.039324024482857E-5
37 163 1.0398459549335E-5
37 162 1.038080927672804E-5
37 161 1.0387563650053266E-5
38 194 3.368997380064011E-4
38 193 3.3672808173686625E-4
38 192 2.6064047819445053E-3
38 191 5.042614438616711E-4
38 190 5.398486762653782E-4
38 189 3.365580567404061E-4
38 188 3.3650415897885217E-4
38 187 3.3642831031881524E-4
38 186 3.3678744143454355E-4
38 185 3.3679058428484295E-4
38 184 3.3602335182549784E-4
38 183 3.362618236693684E-4
38 182 3.362619610124694E-4
39 12 2.8943352539288054E-2
39 11 2.8945366244878295E-2
39 10 2.8979113421372486E-2
39 9 2.8976063919307158E-2
39 8 2.8946011799790304E-2
39 7 2.8975273191095195E-2
39 6 1.3889543973462928E-1
39 5 8.878690618762836E-2
39 4 2.900110287742139E-2
39 3 2.9000962016111728E-2
39 2 2.1385181543720275E-1
39 1 8.545567292022067E-2
40 24 2.9092344228544908E-2
40 23 2.909445394920461E-2
40 22 2.912843789112762E-2
40 21 2.9125314824475158E-2
40 20 2.909494677250081E-2
40 19 2.9124449601154876E-2
40 18 1.397086061529663E-1
40 17 8.861483574194289E-2
40 16 2.9150324862743566E-2
40 15 2.915024549714352E-2
40 14 2.1436413916599514E-1
40 13 8.600316785748889E-2
41 38 3.177801187384555E-2
41 37 3.178211050453438E-2
41 36 3.1782320657685034E-2
41 35 3.180827307189231E-2
41 34 2.2971280126686056E-1
41 33 1.8977859906499753E-1
41 32 1.1645047371153225E-1
41 31 1.1655891344569802E-1
41 30 7.043475454644339E-2
41 29 8.150884412605447E-2
41 28 1.2781554849289106E-1
41 27 1.6613676172709502E-1
41 26 5.876050020797322E-2
41 25 5.8669400581785776E-2
42 57 6.750311012384421E-3
42 56 6.752229321670928E-3
42 55 6.75220408783723E-3
42 54 3.7712595982430874E-2
42 53 6.760301187534788E-3
42 52 6.7502125779759E-3
42 51 3.1148821453499415E-2
42 50 1.2041472145612924E-2
42 49 1.2036986397445132E-2
43 66 4.5948004052817674E-2
43 65 5.2299633394235684E-2
43 64 5.229991945726743E-2
43 63 1.4076775373059866E-1
43 62 5.2286962068200715E-2
43 61 5.237222252898264E-2
43 60 3.5535623843646885E-1
43 59 1.7704242272807855E-1
43 58 1.771382735477923E-1
44 12 2.0529738653658775E-2
44 11 2.05311669902496E-2
44 10 2.055510411753243E-2
44 9 2.0552941082675285E-2
44 8 2.0531624887226537E-2
44 7 2.0552380213179754E-2
44 6 5.9378218947672805E-2
44 5 1.0371689847977056E-1
44 4 2.0570701404861436E-2
44 3 2.057060149087014E-2
44 2 1.5045939688173332E-1
44 1 6.0619192696979914E-2
45 24 2.037988928534411E-2
45 23 2.038136719558503E-2
45 22 2.0405173767115658E-2
45 21 2.0402985983549372E-2
45 20 2.038171243019847E-2
45 19 2.040237987373107E-2
45 18 5.915896137804486E-2
45 17 1.0107647876089929E-1
45 16 2.042050611898185E-2
45 15 2.04204505214635E-2
45 14 1.501370546738755E-1
45 13 6.0163751914075E-2
46 38 3.719378317978166E-1
46 37 3.4710565796814985E-1
46 36 2.9067479653593276E-1
46 35 1.4943884901364882E-1
46 34 2.2068419096875392E-2
46 33 1.77283553228802E-1
46 32 8.901135400775931E-2
46 31 8.787938842500234E-2
46 30 5.701242707687227E-2
46 29 4.562452269974577E-2
46 28 1.2807194468895056E-1
46 27 8.894886236861874E-2
46 26 4.11846408268341E-2
46 25 4.1190061061742035E-2
47 57 4.648525457128212E-2
47 56 4.6498464791576585E-2
47 55 4.649829102163011E-2
47 54 1.1886024860158649E-1
47 53 4.655405078440838E-2
47 52 4.6484576713842624E-2
47 51 3.257278280233317E-1
47 50 1.650716469442597E-1
47 49 1.6474285234356503E-1
48 66 3.436433376756681E-3
48 65 3.911469268207931E-3
48 64 3.911490662750968E-3
48 63 2.3508776576217687E-2
48 62 3.91052158465536E-3
48 61 3.916898181401801E-3
48 60 1.7611487684509E-2
48 59 6.769087650002841E-3
48 58 6.784467273419282E-3
49 12 2.9727585907441612E-2
49 11 2.9729654175305358E-2
49 10 3.6344126943988037E-1
49 9 2.976118361725594E-2
49 8 2.9730317221822816E-2
49 7 7.391644613663488E-2
49 6 2.1727733161927906E-1
49 5 2.9784985503050337E-2
49 4 1.560757557056153E-1
49 3 9.333125504763787E-2
49 2 1.2033869277631828E-1
49 1 1.0744449937795256E-1
50 24 2.9726055097479116E-2
50 23 2.9728210773628066E-2
50 22 3.6804454910637907E-1
50 21 2.9759743883213258E-2
50 20 2.972871433196428E-2
50 19 7.436999005316966E-2
50 18 2.1751978868604804E-1
50 17 2.978347204625151E-2
50 16 1.5309093429182719E-1
50 15 9.287651285876661E-2
50 14 1.2108769160510822E-1
50 13 1.074679262351132E-1
51 38 1.5995948195251508E-1
51 37 1.525424646044591E-1
51 36 1.457629216238449E-1
51 35 4.395345002492278E-1
51 34 3.05149043310621E-2
51 33 3.117283011261332E-2
51 32 9.457128654509733E-2
51 31 9.406554452251319E-2
51 30 2.178346748753112E-1
51 29 3.056892946860445E-2
51 28 9.647742406361681E-2
51 27 1.278001194772113E-1
51 26 1.1060422948093725E-1
51 25 1.1031311246510306E-1
52 43 1.1527368392481435E-1
52 42 7.187110753596952E-3
52 41 7.190855343779016E-3
52 40 1.924432648458283E-2
52 39 1.97449520064321E-2
53 48 6.324141545321736E-1
53 47 6.762853907396012E-2
53 46 3.147608514257315E-1
53 45 2.6201486141121033E-1
53 44 2.6256671068366305E-1
54 66 6.312757617081047E-2
54 65 4.086510939961329E-2
54 64 3.751155236699394E-2
54 63 2.0024582753530548E-1
54 62 9.235497199315724E-2
54 61 2.8044295234781625E-2
54 60 3.1854610337193154E-2
54 59 2.848487538713208E-2
54 58 2.8505143818077557E-2
55 80 4.210676675700602E-4
55 79 5.920216547028412E-4
55 78 5.915455381509706E-4
55 77 5.91753609687191E-4
55 76 1.3289828868234335E-2
55 75 5.92335851477773E-4
55 74 5.923063984259186E-4
55 73 5.922890129971276E-4
55 72 5.922970565809523E-4
55 71 5.920036657241302E-4
55 70 5.91506131203053E-4
55 69 5.91655699076793E-4
55 68 5.914325014210096E-4
55 67 5.917444920268537E-4
56 94 4.2801524180230156E-4
56 93 4.28858597333077E-4
56 92 4.2851494498125884E-4
56 91 4.286687019705117E-4
56 90 9.527795397829232E-3
56 89 4.2909033247190854E-4
56 88 4.29066899940018E-4
56 87 4.2906494960136363E-4
56 86 4.290631106190013E-4
56 85 4.2884956809733136E-4
56 84 4.284868086226821E-4
56 83 4.2859910153885506E-4
56 82 4.2843613614093384E-4
56 81 4.286616965338713E-4
57 148 2.747120838588045E-2
57 147 4.606866165182122E-3
57 146 3.107286423229575E-3
57 145 3.104716883016987E-3
57 144 5.852517392595254E-3
57 143 5.873900785469019E-3
57 142 3.1019882852122175E-3
57 141 3.100654366519306E-3
57 140 3.1037488456677055E-3
57 139 3.103734269410044E-3
58 12 2.9723896101723057E-2
58 11 2.972596411287216E-2
58 10 2.97606213823256E-2
58 9 2.6784626788483373E-1
58 8 2.972662707709189E-2
58 7 6.0974494848645894E-2
58 6 2.9781280335662838E-2
58 5 2.1544745787019057E-1
58 4 8.878239902527033E-2
58 3 1.484848543064027E-1
58 2 1.2105399191260173E-1
58 1 1.0763398817188136E-1
59 24 2.9723088027278036E-2
59 23 2.972524348826078E-2
59 22 2.9759964227481943E-2
59 21 2.6918587968036345E-1
59 20 2.9725746996334925E-2
59 19 6.099302440022708E-2
59 18 2.978048915826311E-2
59 17 2.155114878099829E-1
59 16 8.947507490342499E-2
59 15 1.4906288594066844E-1
59 14 1.2040897717839724E-1
59 13 1.0768368704007468E-1
60 38 3.0358642416057065E-2
60 37 3.0362557980818373E-2
60 36 3.036275874744841E-2
60 35 3.0387551993353155E-2
60 34 3.422111251157665E-1
60 33 3.0362335250214856E-2
60 32 8.284537584800107E-2
60 31 8.250273561570513E-2
60 30 3.0437750575982653E-2
60 29 2.1588990678637454E-1
60 28 1.2784481595690092E-1
60 27 1.0532337063369453E-1
60 26 1.097736933474795E-1
60 25 1.1012395547812158E-1
61 43 5.5759947149673604E-2
61 42 5.685398613872693E-1
61 41 2.4128336959413677E-1
61 40 2.0881748305068823E-1
61 39 2.0969035344336293E-1
62 48 5.677646816813395E-3
62 47 9.048254101151722E-2
62 46 5.681677420627116E-3
62 45 1.3355578455658022E-2
62 44 1.3537235063821486E-2
63 57 6.135095260922896E-2
63 56 2.7619586168178698E-2
63 55 3.431859742169852E-2
63 54 2.001892940487151E-1
63 53 2.6598440193048585E-2
63 52 8.115164998013218E-2
63 51 3.18952663873026E-2
63 50 2.843883042638068E-2
63 49 2.848015445269277E-2
64 80 2.328996712099216E-4
64 79 3.274572220782156E-4
64 78 3.2719387393508173E-4
64 77 3.2730896183212583E-4
64 76 3.276304829076977E-4
64 75 6.357245563422133E-3
64 74 3.2761471866271115E-4
64 73 3.276051024870674E-4
64 72 3.2760955152975673E-4
64 71 3.274472720688706E-4
64 70 3.271720772835688E-4
64 69 3.272548058122603E-4
64 68 3.271313514018403E-4
64 67 3.273039186994934E-4
65 94 2.297727720292285E-4
65 93 2.3022551323838842E-4
65 92 2.3004102926263295E-4
65 91 2.3012357111205575E-4
65 90 2.3035039044111782E-4
65 89 4.511530890101091E-3
65 88 2.3033733698376771E-4
65 87 2.3033628997731734E-4
65 86 2.3033530275061643E-4
65 85 2.3022066604528883E-4
65 84 2.3002592473252847E-4
65 83 2.3008620729284023E-4
65 82 2.2999872206435276E-4
65 81 2.30119810361412E-4
66 138 1.5420962304739424E-3
66 137 4.721892203556419E-3
66 136 1.542383620966713E-3
66 135 2.104589204617962E-3
66 134 1.8811550062108368E-3
66 133 1.1936632597674168E-2
66 132 1.5466564890952129E-3
66 131 1.545748888393537E-3
66 130 1.5471251268548182E-3
66 129 2.7698980567147273E-3
66 128 2.79111728696046E-3
66 127 1.5441528266337626E-3
66 126 1.5436881298271001E-3
66 125 1.5452422832018197E-3
66 124 1.545238095488583E-3
67 24 7.582383186378257E-3
67 23 7.582933046174099E-3
67 22 7.5917903341196705E-3
67 21 7.5909763643725245E-3
67 20 7.583061491480727E-3
67 19 7.590750859865063E-3
67 18 1.247245206693873E-2
67 17 1.4535646456506996E-2
67 16 7.59749476977043E-3
67 15 7.597474084589935E-3
67 14 3.681965071175122E-2
67 13 2.7845364699513535E-2
68 38 4.719907264735794E-3
68 37 3.192275328184606E-3
68 36 3.192296436497028E-3
68 35 3.1949031624276076E-3
68 34 3.6312983295742635E-3
68 33 2.933110904844316E-2
68 32 3.131396194964988E-2
68 31 3.1959678903972022E-3
68 30 5.8590871602879225E-3
68 29 6.438371887515244E-3
68 28 1.2853217175786219E-2
68 27 1.1526323169097737E-2
68 26 1.0711162824556048E-2
68 25 3.2004871950182447E-3
69 57 1.0097573619673725E-3
69 56 1.0100443156975084E-3
69 55 1.010040541049303E-3
69 54 2.066169956495337E-3
69 53 1.0112517602087158E-3
69 52 1.009742637480087E-3
69 51 4.514951227808375E-3
69 50 3.977933706548155E-3
69 49 1.011027331908076E-3
70 66 4.8762320354743977E-4
70 65 5.550298713898099E-4
70 64 5.550329072337999E-4
70 63 1.5331105797289552E-3
70 62 5.54895396939358E-4
70 61 5.558002235989583E-4
70 60 2.2971455997557225E-3
70 59 1.9747646880977237E-3
70 58 5.557154927672981E-4
71 94 5.293632727965055E-2
71 93 9.476935330132007E-2
71 92 5.299812987086805E-2
71 91 1.3522417299731845E-1
71 90 1.0174276949997037E-1
71 89 1.0158105951541926E-1
71 88 1.2002140828494205E-1
71 87 1.23621402226967E-1
71 86 1.2369942547026418E-1
71 85 2.144022814104E-1
71 84 5.2994650005338484E-2
71 83 5.300853823636663E-2
71 82 6.035579246517548E-2
71 81 1.8324478913217113E-1
72 102 6.285445202136368E-2
72 101 1.1504167284348892E-1
72 100 3.964417800004825E-2
72 99 6.235031795391546E-2
72 98 1.732854261142084E-1
72 97 9.971070733059163E-2
72 96 2.1940171542719947E-1
72 95 3.97004077283625E-2
73 110 1.4802627190608142E-1
73 109 3.943610177272374E-1
73 108 3.966255009186003E-2
73 107 1.7298140812793997E-1
73 106 6.507071180151959E-2
73 105 1.004927556512161E-1
73 104 2.1839025275348004E-1
73 103 3.971045930169875E-2
74 123 7.520170813637037E-2
74 122 1.158425522263354E-1
74 121 2.7776796992998154E-1
74 120 4.328164768652808E-2
74 119 1.183051801134716E-1
74 118 1.3796470084609133E-1
74 117 1.2313281686257935E-1
74 116 1.2150582451404053E-1
74 115 2.7656162869086914E-1
74 114 4.330770374597527E-2
74 113 1.030060477042739E-1
74 112 2.6069891640457327E-1
74 111 4.3222912317757524E-2
75 138 8.317043752742434E-2
75 137 1.1579317744999455E-1
75 136 5.451880341205717E-2
75 135 2.6022247441387697E-1
75 134 4.464724068502019E-2
75 133 1.2391741548542357E-1
75 132 1.6275536626021572E-1
75 131 1.249293103854975E-1
75 130 1.7794237568994267E-1
75 129 3.103060605790216E-1
75 128 4.4703659397632683E-2
75 127 1.1458442252534139E-1
75 126 1.0179550954507073E-1
75 125 3.107756299381003E-1
75 124 4.466023511616642E-2
76 148 1.8650153242606818E-1
76 147 1.336874325559345E-1
76 146 1.8400669014490298E-1
76 145 1.3949213867872257E-1
76 144 3.254671807106318E-1
76 143 4.6015893083811536E-2
76 142 1.2169275990612469E-1
76 141 1.1130069075431048E-1
76 140 3.3024473110354513E-1
76 139 4.597610614553003E-2
77 172 1.5043158303137886E-2
77 171 4.563300421115692E-3
77 170 1.3113019015993365E-2
77 169 8.273360240204254E-3
77 168 1.9868318914241113E-2
77 167 4.558273714006123E-3
77 166 4.561077112073443E-3
77 165 4.5582839962525E-3
77 164 4.55728956707168E-3
77 163 4.559578158638335E-3
77 162 4.551838762520007E-3
77 161 4.554800460158285E-3
78 181 2.711831676619398E-3
78 180 4.988111123935492E-4
78 179 1.493808164884959E-3
78 178 2.367806016422688E-3
78 177 4.987831944625965E-4
78 176 4.974344806648705E-4
78 175 4.981236581395862E-4
78 174 4.981708719525402E-4
78 173 4.981740734661221E-4
79 194 2.0268552273267154E-2
79 193 4.6881774898933255E-3
79 192 1.3819727719150517E-2
79 191 4.378414198355564E-2
79 190 4.691003520325339E-3
79 189 4.685810276095734E-3
79 188 4.685059871581893E-3
79 187 4.684003850418498E-3
79 186 4.6890039395230156E-3
79 185 4.689047696610193E-3
79 184 4.678365718656753E-3
79 183 4.681685900105953E-3
79 182 4.681687812298221E-3
80 208 4.487483101324871E-3
80 207 8.563793539896693E-4
80 206 1.261198444344466E-3
80 205 2.0842162357512734E-3
80 204 5.989545937371936E-4
80 203 8.69031706518706E-3
80 202 5.97539078489525E-4
80 201 7.175113248248961E-3
80 200 5.975583718672932E-4
81 12 7.587642939963879E-3
81 11 7.5881708428384405E-3
81 10 7.5970178319742804E-3
81 9 7.59621838993366E-3
81 8 7.588340078249709E-3
81 7 7.596011096624194E-3
81 6 1.2489057742218281E-2
81 5 1.4378573817093324E-2
81 4 7.602782476575027E-3
81 3 7.602745549086399E-3
81 2 3.700684880119309E-2
81 1 2.7801779204405512E-2
82 38 7.774427762508645E-3
82 37 3.1903072306608696E-3
82 36 3.1903283259596214E-3
82 35 3.1929334447948475E-3
82 34 4.06617098161261E-3
82 33 2.9331428134369043E-2
82 32 3.1939999131514263E-3
82 31 3.0827513534448327E-2
82 30 5.913244658633756E-3
82 29 6.349156123908287E-3
82 28 1.2918838560120988E-2
82 27 1.1416304063588682E-2
82 26 3.1985111608130194E-3
82 25 1.0647343777106478E-2
83 57 1.0046711457913564E-3
83 56 1.0049566541161315E-3
83 55 1.0049528984810846E-3
83 54 2.204028944399378E-3
83 53 1.006158016647612E-3
83 52 1.00465649547231E-3
83 51 4.5157158020772995E-3
83 50 1.0059349938757276E-3
83 49 3.923014469642749E-3
84 66 4.87409946304598E-4
84 65 5.547871344995096E-4
84 64 5.547901690158029E-4
84 63 1.6033839959065938E-3
84 62 5.546527188601445E-4
84 61 5.555571498026474E-4
84 60 2.279887748057493E-3
84 59 5.554725734155716E-4
84 58 1.989989584762927E-3
85 80 5.2943859500574356E-2
85 79 1.353216574612951E-1
85 78 7.437926554844206E-2
85 77 1.8782619396673098E-1
85 76 1.4271940991816479E-1
85 75 1.4260629474626413E-1
85 74 1.6848295680303546E-1
85 73 1.7237769431238212E-1
85 72 1.7516402208897972E-1
85 71 3.008303293796178E-1
85 70 7.437431063008905E-2
85 69 7.439311687218024E-2
85 68 8.45601801812956E-2
85 67 2.5661935984642503E-1
86 102 6.387748346572997E-2
86 101 3.9874031205725406E-2
86 100 1.3618599293386544E-1
86 99 6.41990390956469E-2
86 98 1.7478119777705226E-1
86 97 1.0046469613228323E-1
86 96 3.9930786543791355E-2
86 95 2.206887275293808E-1
87 110 1.5620815975981758E-1
87 109 3.987094036280668E-2
87 108 4.1128219056135507E-1
87 107 1.7532100441536214E-1
87 106 6.275672597842508E-2
87 105 1.0049171216042717E-1
87 104 3.991915182379677E-2
87 103 2.196766964902084E-1
88 123 7.538169143612752E-2
88 122 1.1542235965056856E-1
88 121 4.3301185216278126E-2
88 120 2.7667093928933556E-1
88 119 1.1845574332905821E-1
88 118 1.379483467768751E-1
88 117 1.2443011524044786E-1
88 116 1.2317302686111752E-1
88 115 4.332719255724309E-2
88 114 2.759149181506212E-1
88 113 1.0074812993371808E-1
88 112 4.324243909059243E-2
88 111 2.6417109839872244E-1
89 138 8.147825936048639E-2
89 137 1.161054691731973E-1
89 136 5.7862333033261326E-2
89 135 4.467736067528769E-2
89 134 2.644713957401576E-1
89 133 1.2451055313134843E-1
89 132 1.6191209851188346E-1
89 131 1.2649339146374E-1
89 130 1.7890388425745768E-1
89 129 4.4734131154740044E-2
89 128 3.103139192094414E-1
89 127 1.1345714039616812E-1
89 126 1.027281725057065E-1
89 125 4.469078507501885E-2
89 124 3.112304706588044E-1
90 148 1.8850649032657651E-1
90 147 1.3683853369453466E-1
90 146 1.8402665814824354E-1
90 145 1.4006755504884408E-1
90 144 4.625804605330708E-2
90 143 3.2695886036508764E-1
90 142 1.2379299047961151E-1
90 141 1.1352026889156704E-1
90 140 4.621808359893539E-2
90 139 3.298394158505041E-1
91 160 1.5115251816003353E-2
91 159 4.343033996909103E-3
91 158 1.2740232245584075E-2
91 157 7.823381625973859E-3
91 156 1.8694100755468627E-2
91 155 4.33828910516773E-3
91 154 4.340941920503031E-3
91 153 4.338187540097381E-3
91 152 4.337334808462308E-3
91 151 4.339504245239814E-3
91 150 4.3321642636832865E-3
91 149 4.3349653547653496E-3
92 181 2.7678063855751437E-3
92 180 5.037072246420081E-4
92 179 1.435446285495043E-3
92 178 5.036785801178235E-4
92 177 2.3267062501352025E-3
92 176 5.023170804969037E-4
92 175 5.030130226370238E-4
92 174 5.030606998801664E-4
92 173 5.030639328184088E-4
93 194 2.0171415331502403E-2
93 193 4.678388558104879E-3
93 192 1.342424290142714E-2
93 191 4.681208069266118E-3
93 190 4.4140393826722184E-2
93 189 4.676026287058376E-3
93 188 4.67527744939191E-3
93 187 4.674223633204576E-3
93 186 4.679213282104712E-3
93 185 4.67925694782693E-3
93 184 4.668597273882624E-3
93 183 4.6719105227807835E-3
93 182 4.671912430980388E-3
94 208 5.067783036416456E-3
94 207 8.628143108280803E-4
94 206 1.2783804442765185E-3
94 205 6.040533701749262E-4
94 204 2.0910840566295517E-3
94 203 7.258311062262382E-3
94 202 1.2128352068923492E-3
94 201 6.02644019305728E-4
94 200 1.0608541241169622E-2
95 80 5.006368007258335E-3
95 79 4.8444729117701625E-2
95 78 7.033298647996239E-3
95 77 1.1304825804818026E-2
95 76 3.2147871217166384E-2
95 75 1.959239603081404E-2
95 74 5.23197624787144E-2
95 73 7.0421383404510925E-3
95 72 7.04223397624511E-3
95 71 2.6617381642736675E-2
95 70 7.032830111230029E-3
95 69 7.03460842829324E-3
95 68 7.031954675252409E-3
95 67 7.035664149780997E-3
96 94 4.986609927107848E-3
96 93 3.421926001628323E-2
96 92 4.992431740420624E-3
96 91 8.18417433605345E-3
96 90 2.254288017521899E-2
96 89 1.4209028554065733E-2
96 88 3.7512173767944926E-2
96 87 4.998839592830321E-3
96 86 4.998818167687456E-3
96 85 1.8719239455193805E-2
96 84 4.992103936568592E-3
96 83 4.993412210003374E-3
96 82 4.991513574647243E-3
96 81 4.994141475676767E-3
97 123 3.087389805977197E-3
97 122 1.3522170032114362E-2
97 121 4.260397218642686E-3
97 120 4.376468607387758E-3
97 119 1.4334098513792845E-2
97 118 3.898412714479888E-3
97 117 3.218245053479572E-2
97 116 3.348429416113412E-2
97 115 5.9682103851671905E-3
97 114 5.943203929476563E-3
97 113 3.788467070323421E-2
97 112 2.32030144644734E-2
97 111 2.169890729634721E-2
98 138 9.028481651960402E-3
98 137 4.505039660734805E-2
98 136 9.030164231646192E-3
98 135 1.597786792128034E-2
98 134 1.587584105007181E-2
98 133 3.110026525852525E-2
98 132 7.631577557099667E-2
98 131 9.049866799239966E-3
98 130 9.057924236545667E-3
98 129 4.760326250951707E-2
98 128 4.723855514990199E-2
98 127 9.040522366623664E-3
98 126 9.037801715013364E-3
98 125 9.046900787399836E-3
98 124 9.046876269674306E-3
99 148 2.030675600484381E-2
99 147 1.9828380657787976E-2
99 146 3.4507058245798732E-3
99 145 3.4478522970415744E-3
99 144 7.745916482923566E-3
99 143 7.694341521914407E-3
99 142 3.444822132758209E-3
99 141 3.44334078846734E-3
99 140 3.446777271548396E-3
99 139 3.4467610843128597E-3
100 160 1.996227220421038E-5
100 159 1.8701552393070958E-5
100 158 4.025304375689018E-4
100 157 1.870261033986651E-5
100 156 1.8692840866777666E-5
100 155 1.8681120399776892E-5
100 154 1.8692543696259855E-5
100 153 1.8680683050107107E-5
100 152 1.8677011099723595E-5
100 151 1.868635291827414E-5
100 150 1.86547462005415E-5
100 149 1.8666807987685294E-5
101 172 1.777922027250822E-5
101 171 1.7779310252776344E-5
101 170 4.1369569037766503E-4
101 169 1.7780258862090657E-5
101 168 1.777098715490541E-5
101 167 1.7759725439811298E-5
101 166 1.7770647903686408E-5
101 165 1.7759765501002007E-5
101 164 1.7755891054154637E-5
101 163 1.776480775385671E-5
101 162 1.7734653893260515E-5
101 161 1.774619311626284E-5
102 194 3.668006840515632E-4
102 193 3.666137927305437E-4
102 192 2.600971285909454E-3
102 191 6.580486630920147E-4
102 190 6.63538007439437E-4
102 189 3.664286774633829E-4
102 188 3.663699961004237E-4
102 187 3.6628741562544153E-4
102 186 3.666784207941984E-4
102 185 3.666818425826703E-4
102 184 3.658465157504808E-4
102 183 3.6610615274508453E-4
102 182 3.6610630227783183E-4
103 80 4.780957203704024E-3
103 79 1.4093624166932116E-2
103 78 6.716625663192931E-3
103 77 7.5407307709703135E-3
103 76 2.0426530934668365E-2
103 75 3.0771024795430722E-2
103 74 5.117767730934193E-2
103 73 6.7250673501123275E-3
103 72 6.725158679922218E-3
103 71 2.508040441899536E-2
103 70 6.716178222208895E-3
103 69 6.717876470871699E-3
103 68 6.715342202575997E-3
103 67 6.718884658692626E-3
104 94 5.061770942741997E-3
104 93 1.0239476464359286E-2
104 92 5.0676805057299655E-3
104 91 5.707136720188316E-3
104 90 1.6565670377981772E-2
104 89 2.258918591178227E-2
104 88 3.737956345518418E-2
104 87 5.074184940928809E-3
104 86 5.074163192854028E-3
104 85 1.8939944120520802E-2
104 84 5.067347761032188E-3
104 83 5.068675753506863E-3
104 82 5.066748500840821E-3
104 81 5.0694160110864766E-3
105 123 3.087710507538048E-3
105 122 4.6125202822733195E-3
105 121 3.215444737832588E-3
105 120 3.263488089634686E-3
105 119 5.020275573404361E-3
105 118 7.868600101306808E-3
105 117 3.263087720427985E-2
105 116 3.15352809599391E-2
105 115 5.943053090077158E-3
105 114 5.977873769106192E-3
105 113 3.8830344510680306E-2
105 112 1.9974610944580265E-2
105 111 2.2682690823006613E-2
106 138 2.9335841565158805E-3
106 137 2.1599333656687716E-2
106 136 2.9341308696065847E-3
106 135 6.4105532728394475E-3
106 134 6.527688801970266E-3
106 133 1.028488212623191E-2
106 132 1.6448463102094593E-2
106 131 2.9405327367603195E-3
106 130 2.9431508038211293E-3
106 129 6.502552408391181E-3
106 128 6.43236986597043E-3
106 127 2.9374964920702877E-3
106 126 2.9366124829127076E-3
106 125 2.939569003800818E-3
106 124 2.9395610373659353E-3
107 148 5.728240015981908E-2
107 147 1.4283632722788658E-1
107 146 1.1892872175754987E-2
107 145 1.188303748106115E-2
107 144 6.0749530146284744E-2
107 143 6.112123004409314E-2
107 142 1.1872594007080581E-2
107 141 1.1867488547735394E-2
107 140 1.187933240116562E-2
107 139 1.1879276611790082E-2
108 160 4.308502345324009E-6
108 159 4.036398337948286E-6
108 158 5.55034194161306E-5
108 157 4.03662667699723E-6
108 156 4.0345181095312985E-6
108 155 4.0319884546380804E-6
108 154 4.034453970546525E-6
108 153 4.031894060469986E-6
108 152 4.031101535116287E-6
108 151 4.0331178009362735E-6
108 150 4.026296051583995E-6
108 149 4.0288993743754195E-6
109 172 5.004563055394524E-6
109 171 5.0045883833852156E-6
109 170 1.0319680084111369E-4
109 169 5.004855401570245E-6
109 168 5.002245565900935E-6
109 167 4.999075575179378E-6
109 166 5.00215007216774E-6
109 165 4.99908685175686E-6
109 164 4.997996257610702E-6
109 163 5.0005061644131985E-6
109 162 4.9920183401777014E-6
109 161 4.9952664448887215E-6
110 194 8.605100112055865E-5
110 193 8.600715664050798E-5
110 192 5.640560648046873E-4
110 191 1.430508868656667E-4
110 190 1.572044411441019E-4
110 189 8.596372882056518E-5
110 188 8.594996224310414E-5
110 187 8.593058896258913E-5
110 186 8.602231830682916E-5
110 185 8.602312105430601E-5
110 184 8.582715438003812E-5
110 183 8.588806490797608E-5
110 182 8.58880999881795E-5
111 12 5.498377280304517E-4
111 11 5.498759824553722E-4
111 10 5.505170785697847E-4
111 9 5.504591470884558E-4
111 8 5.498882460812136E-4
111 7 5.504441256011224E-4
111 6 5.508992314318308E-4
111 5 5.508993838049109E-4
111 4 5.509348129196027E-4
111 3 5.509321369731185E-4
111 2 1.428707264758112E-2
111 1 5.506442400583042E-4
112 24 5.443797806635325E-4
112 23 5.44419258034657E-4
112 22 5.450551700362748E-4
112 21 5.449967308013369E-4
112 20 5.444284798091479E-4
112 19 5.44980540628499E-4
112 18 5.454310851264745E-4
112 17 5.454312698664082E-4
112 16 5.454647219346739E-4
112 15 5.454632368351024E-4
112 14 1.4146263026945258E-2
112 13 5.451785095475834E-4
113 38 1.764885814207359E-2
113 37 2.4593260025043383E-3
113 36 2.4593422643289843E-3
113 35 2.4613504836094066E-3
113 34 3.0399669314805262E-3
113 33 1.289895960346625E-1
113 32 2.1200474330107088E-2
113 31 2.040954979346106E-2
113 30 2.4654165006962273E-3
113 29 2.4970584470378585E-3
113 28 1.734735863951401E-2
113 27 1.3430313146711122E-2
113 26 3.7940596378146633E-3
113 25 3.7830833162090217E-3
114 80 1.1474433739054372E-1
114 79 3.060581157558527E-2
114 78 5.999250692104993E-1
114 77 2.0075979574162758E-1
114 76 1.0655130138546923E-1
114 75 1.1471210612952264E-1
114 74 3.06205320045875E-2
114 73 2.3236781708213594E-1
114 72 2.251103025055776E-1
114 71 1.095617404457079E-1
114 70 3.0579160497922874E-2
114 69 3.058689272549443E-2
114 68 3.0916508406791143E-1
114 67 1.4180702512088364E-1
115 94 1.097122616093114E-1
115 93 2.154848470721321E-2
115 92 4.271797430234835E-1
115 91 1.3718566145285901E-1
115 90 7.535075861919041E-2
115 89 8.065811353550546E-2
115 88 2.155895110701971E-2
115 87 1.5995834752433952E-1
115 86 1.6054672089967004E-1
115 85 7.71554154787541E-2
115 84 2.1529803763447413E-2
115 83 2.1535446047878524E-2
115 82 2.188487315196519E-1
115 81 1.0010809481607046E-1
116 102 1.235800176130932E-2
116 101 1.2359501162595427E-2
116 100 1.235953387303618E-2
116 99 1.2371067934444683E-2
116 98 3.542825237791583E-2
116 97 7.210357237240811E-2
116 96 2.1923313049135668E-2
116 95 2.17295684395199E-2
117 110 2.3579402544538733E-1
117 109 5.1528505454131984E-2
117 108 2.586193610297431E-1
117 107 3.453493843850862E-2
117 106 1.2355959097119862E-2
117 105 7.10259453084366E-2
117 104 2.1713773306847067E-2
117 103 2.169269275161425E-2
118 138 1.3706544646650218E-1
118 137 2.152453107991873E-2
118 136 4.291520883370863E-1
118 135 7.923008370004514E-2
118 134 7.528087745972736E-2
118 133 8.337547318353976E-2
118 132 2.1549662207425234E-2
118 131 1.7799944870277978E-1
118 130 1.4027152902614726E-1
118 129 8.045077488317585E-2
118 128 8.089912814644813E-2
118 127 2.1514778520772083E-2
118 126 2.8336802270917266E-1
118 125 1.1813217376453844E-1
118 124 1.1741344232325134E-1
119 148 3.493444042076814E-2
119 147 1.0695723521133814E-2
119 146 1.1950553210015558E-1
119 145 1.1511189425790966E-1
119 144 3.699418643900458E-2
119 143 3.634897068494101E-2
119 142 2.2520129466332472E-2
119 141 2.6921583324226644E-1
119 140 8.819620388546395E-2
119 139 8.80599970135909E-2
120 160 2.5264348922720597E-2
120 159 3.4951107553183075E-3
120 158 3.4953070844951006E-3
120 157 3.3677414529554604E-2
120 156 1.201244289909805E-2
120 155 3.4912922445330136E-3
120 154 3.4934271307477853E-3
120 153 3.4912105087763997E-3
120 152 3.4905242623617353E-3
120 151 3.4922701436556508E-3
120 150 3.486363201987611E-3
120 149 3.488617414958201E-3
121 172 2.5171372195479165E-2
121 171 3.703868453565305E-3
121 170 3.704067438811349E-3
121 169 3.60410568705409E-2
121 168 1.2632633239492817E-2
121 167 3.6997884544045455E-3
121 166 3.70206387278732E-3
121 165 3.699796800137781E-3
121 164 3.6989896573831425E-3
121 163 3.7008472256614884E-3
121 162 3.694565433430656E-3
121 161 3.69696933793816E-3
122 181 2.8454541061780473E-2
122 180 4.900300677049046E-3
122 179 2.2695688821575397E-2
122 178 1.0056731338195336E-2
122 177 1.0052832603705845E-2
122 176 4.886776701290524E-3
122 175 4.89354715359611E-3
122 174 4.894010980230753E-3
122 173 4.8940424317737985E-3
123 208 2.0993410663970872E-2
123 207 1.6205222117889125E-3
123 206 6.61347730643228E-3
123 205 2.645235467779497E-3
123 204 2.6255008020052454E-3
123 203 1.0217966777298639E-2
123 202 1.6167471319523115E-3
123 201 4.960401782664282E-3
123 200 8.363578025249481E-3
124 12 2.508497577152569E-3
124 11 2.5086721034306616E-3
124 10 2.5115969446478812E-3
124 9 2.5113326467047863E-3
124 8 2.508728053166633E-3
124 7 2.511264114913205E-3
124 6 3.0471256769616158E-2
124 5 2.5133411169866587E-3
124 4 2.5135027534910932E-3
124 3 2.5134905451522868E-3
124 2 2.561874092998366E-2
124 1 5.810576304025253E-3
125 24 2.527518201353403E-3
125 23 2.5277014920956436E-3
125 22 2.5306539881574724E-3
125 21 2.530382658774521E-3
125 20 2.5277443081657895E-3
125 19 2.5303074889060128E-3
125 18 3.101702210807141E-2
125 17 2.532400194023218E-3
125 16 2.5325555096951395E-3
125 15 2.5325486144790956E-3
125 14 2.56305606517511E-2
125 13 5.894464046879969E-3
126 38 3.2509049154892822E-3
126 37 3.2513242072532223E-3
126 36 3.251345706015107E-3
126 35 3.254000649667661E-3
126 34 3.2536232561954925E-3
126 33 5.741344251517404E-3
126 32 3.2550875150173966E-3
126 31 3.4114398091535966E-3
126 30 2.035648997682308E-2
126 29 3.25938363617309E-3
126 28 3.2569942821544955E-3
126 27 2.450388620347844E-2
126 26 5.148183036442367E-3
126 25 5.154905713659743E-3
127 66 3.2489690171446004E-3
127 65 3.6980907442806057E-3
127 64 3.698110971708244E-3
127 63 1.8930987633246316E-2
127 62 3.6971947587738922E-3
127 61 3.703223499329184E-3
127 60 1.8509446594802716E-2
127 59 6.405488050567156E-3
127 58 6.427874887685156E-3
128 80 3.91698610130392E-1
128 79 5.037111890825394E-1
128 78 9.944824711205208E-2
128 77 3.7610390695063517E-1
128 76 4.36443489620993E-1
128 75 6.272862842992842E-2
128 74 2.2819773358952378E-1
128 73 2.7166250903412503E-1
128 72 1.6809577105299442E-1
128 71 1.748853460090672E-1
128 70 6.766112070329274E-1
128 69 6.26565999900993E-2
128 68 2.3111543423164616E-1
128 67 2.2567629202225797E-1
129 94 3.938366361144785E-1
129 93 3.608960787594558E-1
129 92 7.052186831388574E-2
129 91 2.714423678896242E-1
129 90 3.099358978088296E-1
129 89 4.4702813371092616E-2
129 88 1.6234894269960115E-1
129 87 1.8962599381838913E-1
129 86 1.220533728094352E-1
129 85 1.2452152431973376E-1
129 84 4.817220050127538E-1
129 83 4.465163672351845E-2
129 82 1.6545568712877692E-1
129 81 1.6112765801113893E-1
130 102 4.5884535812963806E-1
130 101 4.098325921412173E-1
130 100 4.238123328537292E-1
130 99 4.578570826183916E-1
130 98 7.027390478334206E-2
130 97 3.249987593756782E-1
130 96 2.9966562885751746E-1
130 95 3.000777875249371E-1
131 110 2.354902790090478E-2
131 109 2.3551714486121672E-2
131 108 2.3551268125562953E-2
131 107 1.6640659694850324E-1
131 106 2.3566461723678198E-2
131 105 2.354811089332779E-2
131 104 3.799246129182705E-2
131 103 3.966050867330489E-2
132 123 4.112328707651654E-1
132 122 3.0541348174974664E-1
132 121 2.3817821305110057E-1
132 120 2.403519714191669E-1
132 119 2.9903625054958116E-1
132 118 4.329846482356213E-2
132 117 1.7552727515929062E-1
132 116 6.501990878947327E-2
132 115 1.377880676212723E-1
132 114 1.3765248322963244E-1
132 113 1.3092439971286002E-1
132 112 1.1352288517742483E-1
132 111 1.1081317068536511E-1
133 148 3.354871605800303E-1
133 147 8.339753726551928E-2
133 146 1.036198497194131E-1
133 145 1.9732946518261085E-1
133 144 1.0701715335894126E-1
133 143 1.0636477791374895E-1
133 142 3.2402808482332696E-1
133 141 9.664480213546868E-2
133 140 1.2644656365991958E-1
133 139 1.2772954857265006E-1
134 160 3.747746793099502E-2
134 159 1.8745028039239735E-3
134 158 1.6111596666168525E-2
134 157 2.865337281995241E-3
134 156 4.990570201244574E-3
134 155 1.8724548547529908E-3
134 154 1.8735998399840193E-3
134 153 1.87241101811499E-3
134 152 1.8720429694554408E-3
134 151 1.8729793230104126E-3
134 150 1.869811303598579E-3
134 149 1.8710202863261173E-3
135 172 3.7737518564604486E-2
135 171 1.9772002351141718E-3
135 170 1.6743911827687228E-2
135 169 3.0487324923815953E-3
135 168 5.381623513062748E-3
135 167 1.975022248665394E-3
135 166 1.976236913229703E-3
135 165 1.975026703787363E-3
135 164 1.974595834585541E-3
135 163 1.975587442274294E-3
135 162 1.972234093949036E-3
135 161 1.973517347017285E-3
136 181 2.400825031285735E-3
136 180 9.600816114973374E-5
136 179 9.592540682219761E-5
136 178 1.4643320459002717E-4
136 177 1.4340370109165937E-4
136 176 9.574319535894248E-5
136 175 9.587584409191834E-5
136 174 9.588493152251069E-5
136 173 9.588554773057874E-5
137 194 9.059246739106465E-2
137 193 6.63065494833041E-3
137 192 2.7145780309051275E-2
137 191 2.545662410348657E-2
137 190 2.5902852880698175E-2
137 189 6.62730691427782E-3
137 188 6.626245590679538E-3
137 187 6.624752022663458E-3
137 186 6.631823825220942E-3
137 185 6.631885712414258E-3
137 184 6.6167778138486386E-3
137 183 6.6214736636971035E-3
137 182 6.621476368178142E-3
138 208 4.337327517078624E-2
138 207 4.671967382431498E-3
138 206 5.482409906842149E-3
138 205 4.785954529497155E-3
138 204 4.773420555817224E-3
138 203 9.04570083757997E-2
138 202 1.1418152854158304E-2
138 201 3.794092416690464E-2
138 200 3.318365229413196E-2
139 12 2.2630428021629474E-3
139 11 2.2632002511639047E-3
139 10 2.2658388986652555E-3
139 9 2.265600462095416E-3
139 8 2.2632507262564166E-3
139 7 2.2655386360928434E-3
139 6 2.2674117777888424E-3
139 5 3.5938215906499336E-2
139 4 2.2675582254145462E-3
139 3 2.2675472116533554E-3
139 2 1.8094535314373793E-2
139 1 4.490251298168264E-3
140 24 2.3007514514638244E-3
140 23 2.3009182975189876E-3
140 22 2.3036058981843583E-3
140 21 2.3033589122392856E-3
140 20 2.3009572721683024E-3
140 19 2.3032904865464524E-3
140 18 2.30519465518843E-3
140 17 3.69111712568852E-2
140 16 2.3053368168520997E-3
140 15 2.305330540268883E-3
140 14 1.796554500599635E-2
140 13 4.635932028692132E-3
141 38 2.3050250277101476E-3
141 37 2.305322322781803E-3
141 36 2.305337566286457E-3
141 35 2.3072200303158232E-3
141 34 2.7420089530259587E-3
141 33 2.3053054116298315E-3
141 32 2.3079906624622615E-3
141 31 2.307988930521368E-3
141 30 2.3110314322794157E-3
141 29 1.7764961710760068E-2
141 28 1.5649871182521837E-2
141 27 2.3093815454424717E-3
141 26 3.4543960744259326E-3
141 25 3.46211014980447E-3
142 57 5.616568876884944E-3
142 56 5.618164998339951E-3
142 55 5.618144002631051E-3
142 54 2.491735096659206E-2
142 53 5.624881161566529E-3
142 52 5.616486974934901E-3
142 51 2.937413002404996E-2
142 50 1.028685468547033E-2
142 49 1.0240013559442986E-2
143 80 3.443394976187995E-2
143 79 4.8414175407069854E-2
143 78 4.837523968559182E-2
143 77 4.8392255299415696E-2
143 76 4.843979182235758E-2
143 75 3.3696738060485365E-1
143 74 1.6416010338688253E-1
143 73 1.4006419145864976E-1
143 72 2.140844323305094E-1
143 71 1.3486812753837338E-1
143 70 4.8372017075618716E-2
143 69 6.571390764707135E-1
143 68 1.5816532525624724E-1
143 67 1.8329386203011336E-1
144 94 3.466783659495561E-2
144 93 3.473614563836552E-2
144 92 3.47083109203117E-2
144 91 3.472076473423736E-2
144 90 3.4754986958946826E-2
144 89 2.4086643367941027E-1
144 88 1.1839983524602403E-1
144 87 1.087875360887518E-1
144 86 1.5156015546328505E-1
144 85 9.692861467915283E-2
144 84 3.470603196716646E-2
144 83 4.680722233297121E-1
144 82 1.1275437907302635E-1
144 81 1.3058366444076874E-1
145 102 2.0685886930077092E-2
145 101 2.0688396756994604E-2
145 100 2.068845151054554E-2
145 99 2.070775821520129E-2
145 98 1.5437019731619492E-1
145 97 2.068975361290845E-2
145 96 3.497516213701897E-2
145 95 3.41036655324388E-2
146 110 6.955261256399763E-2
146 109 6.956054745717015E-2
146 108 6.955922912067086E-2
146 107 6.96680683336174E-2
146 106 4.55146636465738E-1
146 105 3.123855807832835E-1
146 104 3.005328016768441E-1
146 103 2.984839086608135E-1
147 123 1.607169332190559E-2
147 122 1.60894215763943E-2
147 121 1.6102001661281777E-2
147 120 1.6102053069758548E-2
147 119 1.610363610330643E-2
147 118 7.52751933742227E-2
147 117 2.880600668706378E-2
147 116 8.799527547871006E-2
147 115 3.3432896479694656E-2
147 114 3.352196732636137E-2
147 113 6.406667146920052E-2
147 112 4.932240037518661E-2
147 111 5.054036973075963E-2
148 138 8.407218324756476E-2
148 137 2.0398938250224508E-1
148 136 4.130004875182562E-2
148 135 1.1437653322226E-1
148 134 1.1403323830225306E-1
148 133 1.664061044648193E-1
148 132 9.92633910776336E-2
148 131 1.2124184503758817E-1
148 130 7.791649422366774E-2
148 129 7.905695844523367E-2
148 128 7.888911532225439E-2
148 127 3.221536323107932E-1
148 126 6.023590182541891E-2
148 125 9.499527865965784E-2
148 124 9.441318262002324E-2
149 24 1.8232509715226147E-5
149 23 1.8233831901644752E-5
149 22 1.825513003239714E-5
149 21 1.8253172770286013E-5
149 20 1.8234140759723195E-5
149 19 1.8252630524791152E-5
149 18 1.8267720278724458E-5
149 17 1.8267726466082538E-5
149 16 1.8268846851484996E-5
149 15 1.8268797112142485E-5
149 14 2.3695666749637428E-4
149 13 1.8259260951505602E-5
150 38 1.372831161981482E-5
150 37 1.373008225542079E-5
150 36 1.3730173042973878E-5
150 35 1.3741384657814303E-5
150 34 1.3739790955345637E-5
150 33 1.3729981535662296E-5
150 32 1.3745974403315272E-5
150 31 1.3745964088188967E-5
150 30 1.3764084677655977E-5
150 29 3.0422800779472718E-5
150 28 1.0691693737265177E-4
150 27 1.3754258250453361E-5
150 26 4.614966174050325E-5
150 25 1.3765401767525827E-5
151 94 5.247124358255106E-3
151 93 5.257463222192678E-3
151 92 5.253250319356779E-3
151 91 5.2551352570056435E-3
151 90 5.260314936111805E-3
151 89 2.2888606681342304E-2
151 88 2.306521825542483E-2
151 87 5.649305575123989E-3
151 86 7.381919764320866E-3
151 85 1.5678695489611927E-2
151 84 5.252905390115898E-3
151 83 5.254282011409171E-3
151 82 5.933174896253387E-3
151 81 7.243661438622737E-3
152 102 1.8265339721483515E-4
152 101 1.8267555862442106E-4
152 100 1.8267604209037643E-4
152 99 1.8284651750708524E-4
152 98 7.206107891720118E-4
152 97 1.826875394663851E-4
152 96 3.8354711427761236E-4
152 95 1.8293514253675856E-4
153 110 3.553892901459503E-5
153 109 3.554298346481338E-5
153 108 3.554230984141465E-5
153 107 3.5597922835956765E-5
153 106 3.556523920423872E-5
153 105 3.857050913822054E-4
153 104 9.021231747943289E-5
153 103 3.558524212833018E-5
154 123 8.584640673184313E-3
154 122 8.594110160406353E-3
154 121 8.60082977023427E-3
154 120 8.6008572298984E-3
154 119 8.601702801918099E-3
154 118 6.209788905166155E-2
154 117 9.703532975569569E-3
154 116 1.821216328743205E-2
154 115 7.303432501657077E-2
154 114 8.606035046808288E-3
154 113 1.3270523361976956E-2
154 112 2.502831433025066E-2
154 111 8.589185434850308E-3
155 138 2.9399502730279102E-2
155 137 7.469689591292514E-3
155 136 2.2871598575922984E-3
155 135 4.2643832143129404E-2
155 134 2.2907259741386018E-3
155 133 6.28821014515673E-3
155 132 5.0628307778790415E-3
155 131 4.502807844974296E-3
155 130 2.937042152932819E-3
155 129 7.974369095263497E-3
155 128 2.2936206616585015E-3
155 127 3.1167891381235126E-3
155 126 3.6255110324592953E-3
155 125 5.189320119147083E-3
155 124 2.291392682326815E-3
156 172 2.435029394084184E-1
156 171 2.4121897825176808E-1
156 170 2.1432535087640153E-1
156 169 2.139464807579256E-1
156 168 3.872468876082E-1
156 167 1.6216158191421823E-1
156 166 2.126778166921353E-1
156 165 1.0732257215818312E-1
156 164 1.0729915880842202E-1
156 163 4.0176538961641933E-1
156 162 1.0717082227535431E-1
156 161 1.0724055400087999E-1
157 181 2.783587856092699E-1
157 180 2.874316753668985E-1
157 179 2.10120524107329E-1
157 178 5.362890880578643E-1
157 177 8.018773317623397E-2
157 176 1.1338320199222593E-1
157 175 2.0545869842042913E-1
157 174 4.7578410958160094E-1
157 173 8.008980679763984E-2
158 194 2.76824381647371E-1
158 193 2.2989624376312087E-1
158 192 2.0956197181336728E-1
158 191 5.37030604773542E-1
158 190 8.018700610382493E-2
158 189 2.3861241111194892E-1
158 188 2.1686620038310908E-1
158 187 2.141591966775427E-1
158 186 6.144113591261618E-1
158 185 8.01535736735347E-2
158 184 1.8138674295618373E-1
158 183 4.3218514467931646E-1
158 182 8.002776539270728E-2
159 199 2.0693548360813632E-1
159 198 1.748490079195166E-1
159 197 2.7154715690316344E-1
159 196 4.952180861326804E-1
159 195 7.794782891975757E-2
160 208 2.063527321216276E-1
160 207 2.398833625203159E-1
160 206 2.392032149487691E-1
160 205 4.757965085873626E-1
160 204 7.626818600685764E-2
160 203 1.8820828419968308E-1
160 202 1.6862862508029802E-1
160 201 4.6379734456397265E-1
160 200 7.609039738916631E-2
161 12 1.7063787840640524E-5
161 11 1.7064975037076E-5
161 10 1.708487095822528E-5
161 9 1.7083073099591188E-5
161 8 1.706535562920136E-5
161 7 1.7082606919371385E-5
161 6 1.7096730776182857E-5
161 5 1.709673550496333E-5
161 4 1.709783502008509E-5
161 3 1.709775197415944E-5
161 2 2.2849354755517478E-4
161 1 1.708881731648878E-5
162 38 1.2895359726133293E-5
162 37 1.289702293015395E-5
162 36 1.2897108209260963E-5
162 35 1.2907639570325747E-5
162 34 1.2906142564197169E-5
162 33 1.289692832146839E-5
162 32 1.2911950837503057E-5
162 31 1.779643622214645E-4
162 30 1.2928962288643579E-5
162 29 3.802269335697009E-5
162 28 1.0647641283853334E-4
162 27 1.291973207031014E-5
162 26 1.2930187847398531E-5
162 25 2.9169198714133078E-5
163 80 5.376459621039598E-3
163 79 7.559308791528778E-3
163 78 7.553229432762494E-3
163 77 7.555886222392609E-3
163 76 7.563308495988553E-3
163 75 3.237519680452285E-2
163 74 3.397730934630219E-2
163 73 8.062803130630125E-3
163 72 1.0665276640906786E-2
163 71 2.2428584647783474E-2
163 70 7.552726259803405E-3
163 69 7.55463603748453E-3
163 68 8.335770033663035E-3
163 67 1.028120773177193E-2
164 102 1.5504902050770964E-4
164 101 1.5506783266725204E-4
164 100 1.550682430670802E-4
164 99 1.5521295456319463E-4
164 98 6.214946191930177E-4
164 97 1.5507800284661745E-4
164 96 1.5528855093927162E-4
164 95 3.839617542933163E-4
165 110 5.438182521582318E-5
165 109 5.438802935334882E-5
165 108 5.438699857186647E-5
165 107 5.447209782028996E-5
165 106 5.442208518353382E-5
165 105 2.3013046650360706E-4
165 104 5.4453794703542124E-5
165 103 3.571885784180856E-4
166 123 8.561079409368219E-3
166 122 8.570522906791136E-3
166 121 8.577224074088266E-3
166 120 8.577251458387053E-3
166 119 8.578094709663671E-3
166 118 6.222158988254657E-2
166 117 1.0050460950213957E-2
166 116 1.8378531643688755E-2
166 115 8.582375683447538E-3
166 114 7.277789076578664E-2
166 113 1.3249354526647777E-2
166 112 8.5655874715109E-3
166 111 2.445712613977266E-2
167 138 3.0386026449910807E-2
167 137 7.474021162783477E-3
167 136 2.2923231538755015E-3
167 135 2.295881904578274E-3
167 134 4.225117906450706E-2
167 133 6.323564276123407E-3
167 132 5.263688601911361E-3
167 131 4.574602609984122E-3
167 130 2.921712388321193E-3
167 129 2.2987992281291478E-3
167 128 7.927358210391346E-3
167 127 2.956449893083905E-3
167 126 3.7259047911422606E-3
167 125 2.296571758140721E-3
167 124 5.423714087982243E-3
168 160 2.4354827159918804E-1
168 159 2.266403051330355E-1
168 158 2.0040057737696168E-1
168 157 2.0063663206659293E-1
168 156 3.6282272952465144E-1
168 155 1.5072512407122637E-1
168 154 2.006265672911029E-1
168 153 1.0053240516267972E-1
168 152 1.0051264410775994E-1
168 151 3.716453120095287E-1
168 150 1.0039282280039784E-1
168 149 1.0045773479900481E-1
169 181 2.7563648629260756E-1
169 180 2.8615951567843195E-1
169 179 2.0944654949551686E-1
169 178 8.005048554682125E-2
169 177 5.370650010517418E-1
169 176 1.1520824277267538E-1
169 175 2.0639723544280916E-1
169 174 7.995228479938689E-2
169 173 4.737476187656574E-1
170 194 2.771384184249389E-1
170 193 2.298337812998614E-1
170 192 2.0956669922183527E-1
170 191 8.005051508003282E-2
170 190 5.34713982036752E-1
170 189 2.3654912703187894E-1
170 188 1.929389870897629E-1
170 187 1.964751587881957E-1
170 186 8.001640342821498E-2
170 185 6.134827436711563E-1
170 184 1.680201911027874E-1
170 183 7.989152334667705E-2
170 182 4.550372504234105E-1
171 199 2.101758672525583E-1
171 198 1.7496668636421933E-1
171 197 2.718781854498879E-1
171 196 7.801254589617597E-2
171 195 4.962662412200422E-1
172 208 2.069490842240657E-1
172 207 2.4050830544795487E-1
172 206 2.3985574935292236E-1
172 205 7.630813302107514E-2
172 204 4.7562046302514566E-1
172 203 1.8936412539086936E-1
172 202 1.7051466192745496E-1
172 201 7.613009422697156E-2
172 200 4.402965120243206E-1
173 80 4.522170727681282E-4
173 79 6.358177564429519E-4
173 78 6.353064181238027E-4
173 77 6.355298822087537E-4
173 76 6.361541738570545E-4
173 75 1.252466436052739E-3
173 74 2.136920432867696E-2
173 73 6.361048931540659E-4
173 72 6.361135317796642E-4
173 71 6.357984366900445E-4
173 70 6.352640959603915E-4
173 69 6.354247284459805E-4
173 68 6.351850192535611E-4
173 67 6.355200900494743E-4
174 94 4.1836884409590994E-4
174 93 4.191931924931462E-4
174 92 4.188572852095747E-4
174 91 4.190075768991756E-4
174 90 4.194205681325591E-4
174 89 7.966346874119447E-4
174 88 1.4033619612179239E-2
174 87 4.193948940951642E-4
174 86 4.1939309655888486E-4
174 85 4.1918436675388964E-4
174 84 4.1882978297445514E-4
174 83 4.189395450879294E-4
174 82 4.1878025252426083E-4
174 81 4.190007293476321E-4
175 123 8.46614900044703E-3
175 122 8.47548778267819E-3
175 121 8.482114643393015E-3
175 120 8.48214172403819E-3
175 119 8.48297562483636E-3
175 118 4.521978622740511E-2
175 117 1.5131377723397815E-2
175 116 4.972193410176987E-2
175 115 1.8627905965589133E-2
175 114 1.8653362418315993E-2
175 113 3.815051661933275E-2
175 112 2.819771582387611E-2
175 111 2.6689962629018852E-2
176 138 8.27002891965942E-5
176 137 8.284811902935605E-5
176 136 8.271570151418814E-5
176 135 8.284411471823237E-5
176 134 8.284467100043968E-5
176 133 8.290356702245488E-5
176 132 7.950783218562655E-4
176 131 8.289617571801696E-5
176 130 8.296998130582808E-5
176 129 9.156609679223548E-5
176 128 9.157218497361794E-5
176 127 8.281058133907967E-5
176 126 8.27856603519582E-5
176 125 8.286900724757031E-5
176 124 8.286878266684124E-5
177 160 2.3465317603349514E-1
177 159 2.0276033563736673E-1
177 158 4.16216040795993E-1
177 157 5.632581651107996E-2
177 156 1.6659667247131196E-1
177 155 7.399576992655943E-2
177 154 4.537566722745062E-1
177 153 5.625977907153919E-2
177 152 5.6248720422517426E-2
177 151 1.2831335364252672E-1
177 150 5.61816662197522E-2
177 149 5.621799216554858E-2
178 172 2.3335564179442206E-1
178 171 2.1812008597348098E-1
178 170 4.4452573931104983E-1
178 169 6.007154492483451E-2
178 168 1.7740600288813368E-1
178 167 7.953855108779977E-2
178 166 4.8647102749588E-1
178 165 6.0002307020547166E-2
178 164 5.998921699696225E-2
178 163 1.375277088470598E-1
178 162 5.991746612569416E-2
178 161 5.995645200089195E-2
179 194 1.5805551214918198E-1
179 193 2.1209513741483313E-1
179 192 3.0436022187219475E-1
179 191 1.215248856376684E-1
179 190 1.216726474337764E-1
179 189 1.3936717581476135E-1
179 188 4.4687127332186316E-1
179 187 4.82341089704993E-1
179 186 1.1673016821464537E-1
179 185 1.1907390151713002E-1
179 184 5.395253831328154E-1
179 183 3.71970969125577E-1
179 182 3.6821999116284343E-1
180 199 2.654910773852743E-1
180 198 5.446441356669002E-1
180 197 7.452214665771756E-2
180 196 2.5882871139501085E-1
180 195 2.582083226712069E-1
181 208 1.4429455542452932E-1
181 207 3.800862723461364E-1
181 206 5.847863560049153E-2
181 205 1.8439572338064655E-1
181 204 1.8461880286590135E-1
181 203 1.708196404319124E-1
181 202 4.1978651986590737E-1
181 201 1.7864003942197595E-1
181 200 1.8476867821931983E-1
182 12 7.94189254971375E-5
182 11 7.942445099160215E-5
182 10 7.951705133885263E-5
182 9 7.950868367733169E-5
182 8 7.942622235783872E-5
182 7 7.950651396375518E-5
182 6 7.957224975127892E-5
182 5 7.957227176014751E-5
182 4 7.957738916493204E-5
182 3 7.957700264945004E-5
182 2 2.0596611099761245E-3
182 1 7.953541862845097E-5
183 24 7.807164273729894E-5
183 23 7.807730434216397E-5
183 22 7.816850298025842E-5
183 21 7.816012198001932E-5
183 20 7.807862687306803E-5
183 19 7.81578000837356E-5
183 18 7.822241443998579E-5
183 17 7.822244093426535E-5
183 16 7.822723842677926E-5
183 15 7.822702544281606E-5
183 14 2.120432787286471E-3
183 13 7.818619158406833E-5
184 38 3.5274137444163336E-4
184 37 3.5278686994425466E-4
184 36 3.5278920268022E-4
184 35 3.530772789228086E-4
184 34 1.0769284589341776E-3
184 33 1.0308731002830814E-3
184 32 6.656144961545527E-4
184 31 1.4460437786127996E-3
184 30 3.5366054337808564E-4
184 29 1.0815609070200757E-3
184 28 5.419708612718892E-3
184 27 3.5340805876575364E-4
184 26 5.290344376405597E-4
184 25 5.503060974978337E-4
185 80 4.09469433737172E-3
185 79 5.757145237730257E-3
185 78 5.752515217666917E-3
185 77 5.754538620095431E-3
185 76 5.760191399769401E-3
185 75 5.650662522796395E-2
185 74 5.759914242810167E-3
185 73 1.3388891709529688E-2
185 72 4.4533470286183104E-2
185 71 1.720664771101947E-2
185 70 5.752132002761287E-3
185 69 5.753586483294525E-3
185 68 4.313898949595632E-2
185 67 2.015503541824222E-2
186 94 4.032705265573702E-3
186 93 4.0406512543085605E-3
186 92 4.037413405481336E-3
186 91 4.038862084312416E-3
186 90 4.042842954171645E-3
186 89 4.009856907588371E-2
186 88 4.042613855024148E-3
186 87 9.15609924559902E-3
186 86 3.142607317466838E-2
186 85 1.1844416697846532E-2
186 84 4.037148308283141E-3
186 83 4.0382063178821224E-3
186 82 3.070837079317846E-2
186 81 1.3966328428921834E-2
187 102 2.555516258808258E-3
187 101 2.555826320615914E-3
187 100 2.5558330848213895E-3
187 99 2.5582182181163047E-3
187 98 1.0449305669813592E-2
187 97 2.5559939454008903E-3
187 96 3.3725100082407063E-3
187 95 3.4060139249972718E-3
188 110 5.674956264396446E-4
188 109 5.67560369042484E-4
188 108 5.675496124343576E-4
188 107 5.684376563920947E-4
188 106 5.679157549569519E-4
188 105 1.1224679648314707E-2
188 104 1.340135960516506E-3
188 103 1.2238549175223753E-3
189 138 7.187825648947874E-2
189 137 5.787716659762532E-3
189 136 5.778466056760789E-3
189 135 1.9696167457795916E-2
189 134 2.0165386713595048E-2
189 133 3.033198522988428E-2
189 132 5.794474151705468E-3
189 131 3.676103886579185E-2
189 130 1.4812394126658055E-2
189 129 1.087683785162664E-2
189 128 1.0868790465966845E-2
189 127 1.803298859594688E-2
189 126 3.97893139061243E-2
189 125 1.9947339302238642E-2
189 124 2.058435852765239E-2
190 160 2.3431825958095331E-1
190 159 2.408832664946878E-1
190 158 5.6279388515717725E-2
190 157 4.150586734972752E-1
190 156 1.6615995783628631E-1
190 155 3.1407920728803795E-1
190 154 5.6249118601006634E-2
190 153 6.991982657870851E-1
190 152 6.682567750373732E-1
190 151 2.3238106759629554E-1
190 150 6.470320631219857E-1
190 149 6.81676136984026E-1
191 172 2.3540318179707595E-1
191 171 2.5666454144424056E-1
191 170 6.0116765227475236E-2
191 169 4.4276433250801644E-1
191 168 1.7770344941129548E-1
191 167 3.2927868931704446E-1
191 166 6.0084247485756435E-2
191 165 7.428814511110616E-1
191 164 7.184430211506384E-1
191 163 2.408534984149707E-1
191 162 6.872020480376996E-1
191 161 7.316566593982902E-1
192 181 1.5803492058088792E-1
192 180 1.4699716766622872E-1
192 179 3.043626941926843E-1
192 178 1.2167317399080481E-1
192 177 1.2154022085597874E-1
192 176 6.58315436051338E-2
192 175 2.5338243314156883E-1
192 174 1.5580649966806373E-1
192 173 1.4196360386558932E-1
193 199 4.745149746446715E-2
193 198 3.908040496017796E-2
193 197 2.960152925771489E-1
193 196 8.945385372894106E-2
193 195 8.918761012738409E-2
194 208 2.2935878843302648E-1
194 207 5.862394107911982E-2
194 206 3.7995649894765793E-1
194 205 1.8490983098402086E-1
194 204 1.850522011284883E-1
194 203 1.406836983541531E-1
194 202 5.848737395507802E-2
194 201 1.0526773401901464E-1
194 200 1.0737007821286462E-1
195 160 1.304418249322982E-1
195 159 1.7013503149838117E-2
195 158 7.507718953158868E-2
195 157 6.371198826110544E-2
195 156 6.0818050168895105E-2
195 155 1.699491539974338E-2
195 154 1.700530760070133E-2
195 153 1.6994517526356823E-2
195 152 1.6991177015467523E-2
195 151 1.699967561793615E-2
195 150 1.6970921802188767E-2
195 149 1.698189486203163E-2
196 172 1.308716645292488E-1
196 171 1.8285959125224644E-2
196 170 8.042965456246828E-2
196 169 6.884613080231583E-2
196 168 6.523290905546E-2
196 167 1.826581621280215E-2
196 166 1.827704992913464E-2
196 165 1.826585741559829E-2
196 164 1.8261872560411185E-2
196 163 1.8271043355226387E-2
196 162 1.8240030213856426E-2
196 161 1.8251898264818888E-2
197 181 1.7267375300458365E-1
197 180 2.333937502809828E-2
197 179 8.70692022316783E-2
197 178 9.3054739573535E-2
197 177 9.282617156208361E-2
197 176 2.3274962421015337E-2
197 175 2.330720903931164E-2
197 174 2.330941817391121E-2
197 173 2.330956797275147E-2
198 194 7.57601961796077E-2
198 193 1.2204356727377234E-2
198 192 5.095418192883094E-2
198 191 2.9279541884743944E-2
198 190 2.9245135666122312E-2
198 189 1.2198194349417346E-2
198 188 1.2196240881487323E-2
198 187 1.2193491826227039E-2
198 186 1.220650815746274E-2
198 185 1.2206622066780895E-2
198 184 1.2178814529677449E-2
198 183 1.218745769194957E-2
198 182 1.2187462669806451E-2
199 208 1.2592267273012905E-1
199 207 2.256226830061737E-2
199 206 1.5913167043683153E-2
199 205 1.718852669207112E-2
199 204 1.724620518804892E-2
199 203 1.4071190577216208E-1
199 202 1.1498820960136745E-1
199 201 7.299255476773696E-2
199 200 8.704765300467361E-2
200 80 2.6458992003089806E-4
200 79 3.720137506124745E-4
200 78 3.717145691504738E-4
200 77 3.718453168553427E-4
200 76 3.7221058673842953E-4
200 75 8.469229987146273E-3
200 74 4.360925482959943E-3
200 73 3.721817528485832E-4
200 72 3.7218680726468976E-4
200 71 3.720024467228502E-4
200 70 3.7168980666690826E-4
200 69 3.7178379192106105E-4
200 68 3.716435392860495E-4
200 67 3.718395875125189E-4
201 94 2.574810169386856E-4
201 93 2.579883541045083E-4
201 92 2.5778162324920767E-4
201 91 2.578741188009725E-4
201 90 2.581282902199465E-4
201 89 6.0008948517173265E-3
201 88 2.9363364807718337E-3
201 87 2.581124893845098E-4
201 86 2.581113831083717E-4
201 85 2.5798292238952503E-4
201 84 2.57764697267346E-4
201 83 2.578322492875251E-4
201 82 2.5773421423576885E-4
201 81 2.57869904542287E-4
202 123 1.4168859348460173E-3
202 122 1.4184488637752413E-3
202 121 1.4195579283261396E-3
202 120 1.4195624605148895E-3
202 119 1.4197020212894425E-3
202 118 3.1029733718360875E-2
202 117 1.4184715481478035E-3
202 116 1.4184721440563773E-3
202 115 3.960711513878601E-3
202 114 3.9487683078844454E-3
202 113 1.4166722562847808E-3
202 112 1.4176320335022672E-3
202 111 1.4176360429899596E-3
203 138 7.788874286336764E-2
203 137 1.2210490426990147E-2
203 136 1.1862049191716378E-3
203 135 1.3150867745752791E-2
203 134 1.4063660732869817E-2
203 133 2.2836869519574435E-3
203 132 3.911381054262194E-3
203 131 1.1887930540051266E-3
203 130 1.1898514812410837E-3
203 129 1.6450453174841264E-3
203 128 1.6221419895614058E-3
203 127 1.1875655667023509E-3
203 126 1.1872081811398403E-3
203 125 1.1884034378536557E-3
203 124 1.1884002171983182E-3
204 160 2.8577996281696657E-2
204 159 1.9217792466568406E-1
204 158 1.0822035914474945E-1
204 157 1.0882631596183386E-1
204 156 9.67620252293338E-2
204 155 3.2149778962794145E-1
204 154 1.5059984805222193E-1
204 153 2.6743272773973863E-2
204 152 2.6738016008444717E-2
204 151 1.2952573588926278E-1
204 150 2.670614157052857E-2
204 149 2.6723409229471383E-2
205 172 2.857723707106055E-2
205 171 2.0437150712039792E-1
205 170 1.1619625642180757E-1
205 169 1.155439679994721E-1
205 168 1.0333283098296103E-1
205 167 3.4717145617833683E-1
205 166 1.6031699885184672E-1
205 165 2.8545966654868228E-2
205 164 2.8539739104706887E-2
205 163 1.399837639004638E-1
205 162 2.8505603784243706E-2
205 161 2.852415122931154E-2
206 181 2.9207942471902535E-2
206 180 1.995045144491795E-1
206 179 1.1224047222299947E-1
206 178 1.053383926061672E-1
206 177 1.0567450273153078E-1
206 176 6.306844218618457E-1
206 175 2.533469439929429E-1
206 174 2.13537194007222E-1
206 173 2.1376592899182698E-1
207 194 2.9333821207246685E-2
207 193 2.4696921107914188E-1
207 192 1.1244806361137831E-1
207 191 1.0571470411542394E-1
207 190 1.0596421166343899E-1
207 189 3.01951107488951E-1
207 188 2.929937818708845E-2
207 187 2.9292774053035105E-2
207 186 1.0746136513252885E-1
207 185 1.0798161330440255E-1
207 184 2.9257514363877662E-2
207 183 2.9278278079731098E-2
207 182 2.927829003817901E-2
208 199 2.1796829994767647E-1
208 198 1.680291375388912E-2
208 197 3.480326264609818E-2
208 196 2.8018275275147792E-2
208 195 2.807637200070203E-2
