%%MatrixMarket matrix coordinate real general
%Complete acoustic radiance transfer reflection kernel, w.r.t. frequency band #6 (center freq. 4000.00Hz). Includes energy losses due to surface materials and air absorption over propagation paths.
208 208 2354
1 24 1.0392738980705497E-1
1 23 1.0410825328284229E-1
1 22 1.4735838377461813E-1
1 21 1.5695366201986233E-1
1 20 1.0415055073940202E-1
1 19 3.3320131567444294E-1
1 18 2.4672218348977604E-1
1 17 2.461701135453522E-1
1 16 2.169871874366679E-1
1 15 2.1727291047491223E-1
1 14 2.170676333103906E-1
1 13 3.8819407147109336E-1
2 38 1.6123878480826315E-1
2 37 4.4970289928351753E-1
2 36 7.650236131170823E-2
2 35 1.5037079259797553E-1
2 34 1.6196041181668813E-1
2 33 1.6542091243460066E-1
2 32 4.351814536074565E-1
2 31 7.863998254056541E-2
2 30 2.8180165902896914E-1
2 29 2.814171102131005E-1
2 28 2.1104500550951355E-1
2 27 2.0932126659766173E-1
2 26 5.441121193583431E-1
2 25 8.135914760299572E-2
3 43 3.0790780916966876E-1
3 42 1.616420138747669E-1
3 41 2.0755003541216083E-1
3 40 5.391852517692247E-1
3 39 8.089536886583416E-2
4 48 1.3576880180043194E-1
4 47 3.1156089680115817E-1
4 46 1.946218795633231E-1
4 45 5.036374919992614E-1
4 44 7.756981950924549E-2
5 57 1.7816320306180283E-1
5 56 4.0552725465052997E-1
5 55 7.548165001931628E-2
5 54 1.9332343506051633E-1
5 53 2.52248893893755E-1
5 52 1.8145286692114396E-1
5 51 2.4300938047940435E-1
5 50 4.8211537287109124E-1
5 49 7.727653473091124E-2
6 66 1.1930850461872428E-1
6 65 2.740168555582362E-1
6 64 5.205781744029031E-2
6 63 1.3391980706694953E-1
6 62 1.2278025357061192E-1
6 61 2.4862032660040384E-1
6 60 2.421617937083765E-1
6 59 4.8208619814556214E-1
6 58 7.727601968773908E-2
7 94 8.705825643298174E-3
7 93 2.1603791333157037E-2
7 92 8.95292618855324E-3
7 91 1.2770586477298482E-2
7 90 2.6371419188677397E-2
7 89 2.5490102501010015E-2
7 88 3.1056550002853945E-2
7 87 9.23357911478623E-3
7 86 9.232625240771921E-3
7 85 3.858331658762503E-2
7 84 8.938815883869801E-3
7 83 8.995272523681626E-3
7 82 8.913463602322095E-3
7 81 9.026907993265438E-3
8 123 1.2571695252559896E-3
8 122 3.4992826698875728E-3
8 121 2.3112376498046023E-3
8 120 1.3154393082450764E-3
8 119 3.4560341694302664E-3
8 118 2.3792915271025296E-3
8 117 9.090413709255205E-3
8 116 8.703709165966075E-3
8 115 4.7426593641795E-3
8 114 1.3346461517608273E-3
8 113 7.799507731103697E-3
8 112 2.0330062762604035E-2
8 111 1.2732167831984026E-3
9 138 2.834878716094984E-3
9 137 1.3910308752360979E-2
9 136 2.8475456643079055E-3
9 135 9.016959143490884E-3
9 134 2.9559405991744984E-3
9 133 9.32856739078817E-3
9 132 1.3694397934456667E-2
9 131 3.0004518431473387E-3
9 130 3.065486870343394E-3
9 129 1.79355750053546E-2
9 128 3.047164328438097E-3
9 127 2.9268676358263955E-3
9 126 2.9058072309560276E-3
9 125 2.9768839393865816E-3
9 124 2.976689946938073E-3
10 148 1.5173463188836264E-2
10 147 2.7377514841150304E-2
10 146 5.010258050763798E-3
10 145 4.911358515391022E-3
10 144 2.9573177133851027E-2
10 143 3.692376992038332E-3
10 142 3.5676808239603233E-3
10 141 3.5310354057521624E-3
10 140 3.616669504603124E-3
10 139 3.616260976939035E-3
11 172 1.5899288025050914E-5
11 171 1.5901227133094216E-5
11 170 2.1329350494533512E-4
11 169 1.592168537258741E-5
11 168 1.5722924494586353E-5
11 167 1.5485057399143308E-5
11 166 1.571570223922385E-5
11 165 1.5485896723150014E-5
11 164 1.5404947251901734E-5
11 163 1.5591925804544447E-5
11 162 1.4969184658905322E-5
11 161 1.5204299949400575E-5
12 194 9.403597666255712E-5
12 193 9.288905031100482E-5
12 192 4.7713289043337386E-4
12 191 2.868608716308962E-4
12 190 9.424688879575212E-5
12 189 9.176772607951581E-5
12 188 9.141528963464437E-5
12 187 9.09217613630767E-5
12 186 9.328396646094871E-5
12 185 9.33049255106937E-5
12 184 8.8334481076987E-5
12 183 8.984841782539432E-5
12 182 8.984929768531642E-5
13 12 1.0391832815781117E-1
13 11 1.0409182756891901E-1
13 10 1.456357928159636E-1
13 9 1.5655933629518676E-1
13 8 1.041475135382381E-1
13 7 3.32338171442447E-1
13 6 2.4676686389106584E-1
13 5 2.4627670149148898E-1
13 4 2.1705024693077432E-1
13 3 2.1661354595559826E-1
13 2 2.1729427873911322E-1
13 1 3.8822896087419667E-1
14 38 1.5831364111769253E-1
14 37 7.635940183198765E-2
14 36 4.2887019025982975E-1
14 35 1.5101428712037981E-1
14 34 1.611423130618081E-1
14 33 1.654888673379579E-1
14 32 7.850686913032957E-2
14 31 4.339170592693316E-1
14 30 2.7904568902382E-1
14 29 2.8034149500818434E-1
14 28 2.10090675564088E-1
14 27 2.08727838216673E-1
14 26 8.12182092018357E-2
14 25 5.449106610476184E-1
15 43 3.0673259271623704E-1
15 42 1.6016794294921044E-1
15 41 2.0615659329587988E-1
15 40 8.055151874953136E-2
15 39 5.357927573402042E-1
16 48 1.3478234593102642E-1
16 47 3.119095291348249E-1
16 46 1.944626958889286E-1
16 45 7.752715583386506E-2
16 44 5.01331691061623E-1
17 57 1.7744919522617253E-1
17 56 7.552795303098875E-2
17 55 4.062010121431921E-1
17 54 1.932569238069554E-1
17 53 2.520696434453931E-1
17 52 1.8194114414939846E-1
17 51 2.4298029077864375E-1
17 50 7.731750300717484E-2
17 49 4.8283594917091355E-1
18 66 1.1915986248734808E-1
18 65 5.207823034747934E-2
18 64 2.795639215037421E-1
18 63 1.337147283341034E-1
18 62 1.2245824165314777E-1
18 61 2.4928838102959558E-1
18 60 2.4282239896738203E-1
18 59 7.731687196473273E-2
18 58 4.819054731591229E-1
19 80 8.701829043895791E-3
19 79 2.1509330969326095E-2
19 78 8.949800937764015E-3
19 77 1.2490030682240404E-2
19 76 2.6608810963400484E-2
19 75 2.50352470180703E-2
19 74 3.0409374507784626E-2
19 73 9.090747023777546E-3
19 72 9.093723200688958E-3
19 71 3.797337409286776E-2
19 70 8.805990101542777E-3
19 69 8.859647831006933E-3
19 68 8.77970277619862E-3
19 67 8.891667416974197E-3
20 123 1.250223733195276E-3
20 122 3.2408813768207505E-3
20 121 1.3080710667343178E-3
20 120 2.247533634286603E-3
20 119 3.4174360974113306E-3
20 118 2.335480447167305E-3
20 117 8.887092530762081E-3
20 116 9.280487260472746E-3
20 115 1.3271255106402837E-3
20 114 4.795112310942643E-3
20 113 8.373396664881416E-3
20 112 1.2660964530990327E-3
20 111 1.681692619736842E-2
21 138 2.8412839345459406E-3
21 137 1.3679442144360626E-2
21 136 2.8539795028793458E-3
21 135 2.962141386868056E-3
21 134 1.059704130344979E-2
21 133 9.241888118855963E-3
21 132 1.3717050713070273E-2
21 131 3.0072311629813133E-3
21 130 3.0724131324623375E-3
21 129 3.0540711259195736E-3
21 128 1.8034739466870658E-2
21 127 2.933480697075918E-3
21 126 2.9123727076323215E-3
21 125 2.98361000912165E-3
21 124 2.983415578360206E-3
22 148 1.5068128044511594E-2
22 147 2.7596649551710196E-2
22 146 4.999247332420019E-3
22 145 4.900565142125537E-3
22 144 4.96621964213616E-3
22 143 2.1912237941385016E-2
22 142 3.559840363789387E-3
22 141 3.523275478834083E-3
22 140 3.608721385194055E-3
22 139 3.6083137553246506E-3
23 160 1.769605556820255E-5
23 159 1.7697315973125208E-5
23 158 2.3031066302867058E-4
23 157 1.7721458017348222E-5
23 156 1.7499850433443183E-5
23 155 1.7425250076776754E-5
23 154 1.768329902539915E-5
23 153 1.7415450691444754E-5
23 152 1.7333407491081068E-5
23 151 1.754294884256903E-5
23 150 1.684468995838008E-5
23 149 1.7107595095504434E-5
24 194 9.89025147936511E-5
24 193 9.769623285265866E-5
24 192 4.93636947813215E-4
24 191 9.912402638248957E-5
24 190 3.2167321494509706E-4
24 189 9.651687798945257E-5
24 188 9.614620229766068E-5
24 187 9.562713301256182E-5
24 186 9.81115866539196E-5
24 185 9.813363037379188E-5
24 184 9.290595611992902E-5
24 183 9.449824193404154E-5
24 182 9.449916732836456E-5
25 12 7.245945579521512E-1
25 11 6.797706518290629E-1
25 10 3.628647668637673E-1
25 9 4.4474595408393175E-1
25 8 7.0596698391236E-1
25 7 4.2198903851277325E-1
25 6 2.3775396269847626E-1
25 5 2.3754663032091097E-1
25 4 4.4733281689539056E-1
25 3 4.5025317300606665E-1
25 2 6.100136427430976E-2
25 1 1.7826231181315583E-1
26 24 7.161375975326314E-1
26 23 7.066058283637782E-1
26 22 3.5795212699833096E-1
26 21 4.422725016290959E-1
26 20 7.06832095092612E-1
26 19 4.2042465579514954E-1
26 18 2.3644043648511673E-1
26 17 2.3917258747758438E-1
26 16 4.5024613478596914E-1
26 15 4.5007273732463915E-1
26 14 6.094782897886395E-2
26 13 1.778396394675156E-1
27 43 1.83616648540719E-1
27 42 6.413193866128501E-2
27 41 2.927555725018935E-1
27 40 1.2158743923138843E-1
27 39 1.2231298128605371E-1
28 48 6.023566232288421E-2
28 47 1.8861535081965675E-1
28 46 2.4844849071647937E-1
28 45 1.1351805506657102E-1
28 44 1.1388781779043067E-1
29 57 4.622513380626114E-1
29 56 3.7114781665322205E-1
29 55 3.629554803080001E-1
29 54 1.7350419074170903E-1
29 53 3.785731664342466E-1
29 52 4.359207970864263E-1
29 51 5.935220669606976E-2
29 50 1.8812236211449446E-1
29 49 1.8771874773630393E-1
30 66 3.1788666903461316E-1
30 65 2.5523573551450723E-1
30 64 2.530717958765364E-1
30 63 1.203092446455901E-1
30 62 2.986867923677572E-1
30 61 3.809984681157745E-1
30 60 5.920192708808921E-2
30 59 1.868333029655984E-1
30 58 1.8705841835164966E-1
31 80 2.7511569318516838E-3
31 79 3.4353620025627404E-2
31 78 2.829555345711413E-3
31 77 3.878798409916156E-3
31 76 1.632140770792887E-2
31 75 1.853708513694244E-2
31 74 5.363962178048064E-2
31 73 2.8741166442151455E-3
31 72 2.8750575877454017E-3
31 71 4.385280451999693E-3
31 70 2.784088332173267E-3
31 69 2.8010526776709854E-3
31 68 2.7757773716871894E-3
31 67 2.811175940888924E-3
32 94 2.7498056331264225E-3
32 93 3.443041436066572E-2
32 92 2.8278543443148968E-3
32 91 3.97620511375441E-3
32 90 1.6151317124787738E-2
32 89 1.88301379888257E-2
32 88 5.44633934430747E-2
32 87 2.9165008471429173E-3
32 86 2.9161995582996404E-3
32 85 4.456980532460419E-3
32 84 2.8233974901469613E-3
32 83 2.841229777691274E-3
32 82 2.8153897664147318E-3
32 81 2.8512220973209612E-3
33 123 4.2520861584126515E-3
33 122 1.478406293874004E-2
33 121 5.267447553119187E-3
33 120 5.316934765854261E-3
33 119 1.5165904483694228E-2
33 118 9.02430706626165E-3
33 117 5.367877761779531E-2
33 116 5.330726799133099E-2
33 115 7.575065341304215E-3
33 114 7.46054602528478E-3
33 113 6.287345651578777E-2
33 112 2.5969607895560257E-2
33 111 2.7813505490844034E-2
34 138 2.775485382556452E-3
34 137 3.420556198296317E-2
34 136 2.787886946477674E-3
34 135 6.22738837296462E-3
34 134 6.113880029601121E-3
34 133 5.600963636925388E-3
34 132 3.762484885662965E-2
34 131 2.937589599314971E-3
34 130 3.001262082484005E-3
34 129 6.848919449614825E-3
34 128 6.822959718477189E-3
34 127 2.865547049259211E-3
34 126 2.844927879367899E-3
34 125 2.9145154649563823E-3
34 124 2.9143255368292618E-3
35 148 9.270211650506241E-3
35 147 7.425998326572103E-2
35 146 3.815274266311534E-3
35 145 3.7399630052078474E-3
35 144 9.225847805229876E-3
35 143 6.818111464932183E-3
35 142 2.7167624302292964E-3
35 141 2.6888572166352564E-3
35 140 2.7540669464245324E-3
35 139 2.75375585564476E-3
36 160 1.0556961634613526E-5
36 159 1.0557713556213302E-5
36 158 3.330337646994292E-4
36 157 1.0572116010684652E-5
36 156 1.0439911251708383E-5
36 155 1.0395406808318688E-5
36 154 1.0549351445300618E-5
36 153 1.0389560774743917E-5
36 152 1.034061614325346E-5
36 151 1.0465622532389034E-5
36 150 1.0049061213229504E-5
36 149 1.0205902913656338E-5
37 172 9.898887855210122E-6
37 171 9.900095142796179E-6
37 170 2.789694031212939E-4
37 169 9.912832431292313E-6
37 168 9.789084019524718E-6
37 167 9.640988098592579E-6
37 166 9.784587447364853E-6
37 165 9.641510661250947E-6
37 164 9.591111565608255E-6
37 163 9.707524308180341E-6
37 162 9.319806018292513E-6
37 161 9.466188666999213E-6
38 194 3.2020217993169634E-4
38 193 3.1629677764820644E-4
38 192 2.436807563698433E-3
38 191 4.8029786361741654E-4
38 190 5.141954841904259E-4
38 189 3.124785532188325E-4
38 188 3.1127847084674024E-4
38 187 3.095979562817566E-4
38 186 3.176415077886296E-4
38 185 3.1771287551038706E-4
38 184 3.0078800059136075E-4
38 183 3.0594311105358607E-4
38 182 3.059461070671874E-4
39 12 2.691799348394105E-2
39 11 2.696293508471985E-2
39 10 2.7728137375073996E-2
39 9 2.7658047993362727E-2
39 8 2.69773594368611E-2
39 7 2.7639904875545875E-2
39 6 1.350447561925257E-1
39 5 8.632596376243223E-2
39 4 2.8239185178263026E-2
39 3 2.8235879681310676E-2
39 2 2.0820914721685685E-1
39 1 8.220335960707442E-2
40 24 2.70563053291792E-2
40 23 2.7103391063102503E-2
40 22 2.787403344866348E-2
40 21 2.780224644447436E-2
40 20 2.71144027213521E-2
40 19 2.778239328493218E-2
40 18 1.3583604172483607E-1
40 17 8.615920682073251E-2
40 16 2.8382712272984726E-2
40 15 2.838084993269167E-2
40 14 2.0870362088242259E-1
40 13 8.273001771733621E-2
41 38 2.9076654048166447E-2
41 37 2.91665494875293E-2
41 36 2.917116677480684E-2
41 35 2.9747411053211357E-2
41 34 2.14257668163019E-1
41 33 1.7413115298095777E-1
41 32 1.0974540061638303E-1
41 31 1.0984569965572145E-1
41 30 6.842487750712056E-2
41 29 7.91872032112002E-2
41 28 1.2209165212200856E-1
41 27 1.5875838367150072E-1
41 26 5.720886527932717E-2
41 25 5.71213568511643E-2
42 57 6.3757311048057395E-3
42 56 6.419407123633891E-3
42 55 6.418830532411077E-3
42 54 3.51091929465474E-2
42 53 6.60671602454367E-3
42 52 6.3734985235009E-3
42 51 3.026160020639037E-2
42 50 1.1707787757359632E-2
42 49 1.1703352399269971E-2
43 66 3.407392569319143E-2
43 65 3.4293253083404134E-2
43 64 3.429775878702741E-2
43 63 9.0932773076337E-2
43 62 3.4094302719396896E-2
43 61 5.1099936999853206E-2
43 60 3.452160406177535E-1
43 59 1.7213500716216787E-1
43 58 1.7222736044704304E-1
44 12 1.909313617197826E-2
44 11 1.9125013588991838E-2
44 10 1.9667777355450045E-2
44 9 1.9618062427403073E-2
44 8 1.9135244890956814E-2
44 7 1.9605193376845197E-2
44 6 5.7732040132169045E-2
44 5 1.008421354472662E-1
44 4 2.0030267423756947E-2
44 3 2.0027922809792133E-2
44 2 1.4648939337485983E-1
44 1 5.831211815525087E-2
45 24 1.8953594895873307E-2
45 23 1.8986579588916176E-2
45 22 1.9526433179707807E-2
45 21 1.947614465067049E-2
45 20 1.8994293521289993E-2
45 19 1.9462237033248692E-2
45 18 5.75191419299365E-2
45 17 9.827552198632288E-2
45 16 1.988277497327473E-2
45 15 1.9881470358951252E-2
45 14 1.4617252242361364E-1
45 13 5.787401075784247E-2
46 38 3.4032046137886707E-1
46 37 3.1854002738695025E-1
46 36 2.6679370138858705E-1
46 35 1.397566871637567E-1
46 34 2.0583650496028713E-2
46 33 1.626663368809008E-1
46 32 8.388619121624785E-2
46 31 8.281797265859442E-2
46 30 5.5385560214401455E-2
46 29 4.432498570156905E-2
46 28 1.2233656626229752E-1
46 27 8.499851250415728E-2
46 26 4.0097115584460705E-2
46 25 4.010322507640316E-2
47 57 4.3905752333661265E-2
47 56 4.42065223056169E-2
47 55 4.420255167526715E-2
47 54 1.1065500247640873E-1
47 53 4.549640390163281E-2
47 52 4.3890377914598766E-2
47 51 3.164500243597676E-1
47 50 1.6049730330400747E-1
47 49 1.6017660837822917E-1
48 66 2.548375668170717E-3
48 65 2.5647790784972565E-3
48 64 2.5651160583212117E-3
48 63 1.5186135951268177E-2
48 62 2.5498996580461206E-3
48 61 3.8217444408380295E-3
48 60 1.710893855299933E-2
48 59 6.581456202190704E-3
48 58 6.596377322290509E-3
49 12 2.7647348822621726E-2
49 11 2.7693508136618132E-2
49 10 3.47752165508554E-1
49 9 2.8407455447283098E-2
49 8 2.7708323323174567E-2
49 7 7.050989740393113E-2
49 6 2.1125361877069992E-1
49 5 2.8959423068163723E-2
49 4 1.5197532955340137E-1
49 3 9.086905760459825E-2
49 2 1.1716345053664558E-1
49 1 1.0335532467708185E-1
50 24 2.7645665699234226E-2
50 23 2.7693777089293194E-2
50 22 3.521948588775605E-1
50 21 2.8407855453299567E-2
50 20 2.7705028611593033E-2
50 19 7.094301662516994E-2
50 18 2.1149038635160847E-1
50 17 2.8958134452173923E-2
50 16 1.490596060272649E-1
50 15 9.04251174822751E-2
50 14 1.1789023938705999E-1
50 13 1.0337785994358706E-1
51 38 1.463617842715081E-1
51 37 1.3998873178044238E-1
51 36 1.3378741414353318E-1
51 35 4.110570046173136E-1
51 34 2.8461854150634073E-2
51 33 2.860259732094334E-2
51 32 8.91259897697663E-2
51 31 8.864783692742326E-2
51 30 2.1161869649617798E-1
51 29 2.9698225459259767E-2
51 28 9.215692640913509E-2
51 27 1.2212432811562243E-1
51 26 1.0768360448436312E-1
51 25 1.0740240397884725E-1
52 43 1.1247332463385969E-1
52 42 6.7860144028268786E-3
52 41 6.871498876745871E-3
52 40 1.8736389100674617E-2
52 39 1.9224055010904045E-2
53 48 5.943019400075502E-1
53 47 6.609210749962771E-2
53 46 3.006650820423075E-1
53 45 2.551152502655309E-1
53 44 2.556685515024332E-1
54 66 4.681387981865061E-2
54 65 2.6795551860912162E-2
54 64 2.4599697058067437E-2
54 63 1.2935425843051712E-1
54 62 6.0221100026216924E-2
54 61 2.7363011354150046E-2
54 60 3.0945629389852958E-2
54 59 2.76953068830762E-2
54 58 2.7714878217023415E-2
55 80 4.3618654837050013E-4
55 79 4.573809607305929E-4
55 78 4.4861634950008576E-4
55 77 4.5242439244168314E-4
55 76 1.0393565341351487E-2
55 75 4.565508311454203E-4
55 74 4.5600390226624963E-4
55 73 4.5568139139581223E-4
55 72 4.5583057478332543E-4
55 71 4.504226470118535E-4
55 70 4.414077095747105E-4
55 69 4.4409734869429145E-4
55 68 4.4009003513524267E-4
55 67 4.457023575508043E-4
56 94 4.433647409116658E-4
56 93 4.648241248183159E-4
56 92 4.5594892002516333E-4
56 91 4.5989730461305604E-4
56 90 1.0456947473977074E-2
56 89 4.709128908626773E-4
56 88 4.7029335912714067E-4
56 87 4.7024183341714914E-4
56 86 4.7019325512916767E-4
56 85 4.645885912389015E-4
56 84 4.5523031941949025E-4
56 83 4.581055071970197E-4
56 82 4.539391945795882E-4
56 81 4.597166182335062E-4
57 148 2.7948904857015858E-2
57 147 6.727912501660141E-3
57 146 4.625801403750874E-3
57 145 4.534490815569102E-3
57 144 8.657431718351889E-3
57 143 6.4461340393242E-3
57 142 3.2939187555608737E-3
57 141 3.2600852832584824E-3
57 140 3.339148343615889E-3
57 139 3.3387711638732756E-3
58 12 2.7643917217172624E-2
58 11 2.7690070801847405E-2
58 10 2.8475909047241166E-2
58 9 2.5566291379781564E-1
58 8 2.7704884149534037E-2
58 7 5.816439508045698E-2
58 6 2.8955635618525894E-2
58 5 2.0947581393935064E-1
58 4 8.644990562055371E-2
58 3 1.445676346309925E-1
58 2 1.1785987587615485E-1
58 1 1.0353760181488382E-1
59 24 2.764290628058226E-2
59 23 2.769101286846108E-2
59 22 2.847836335777316E-2
59 21 2.5695764016109485E-1
59 20 2.770226326770384E-2
59 19 5.8182462320502705E-2
59 18 2.8955007706960554E-2
59 17 2.0953939252945436E-1
59 16 8.711893670294593E-2
59 15 1.4512849975244985E-1
59 14 1.1722944715310321E-1
59 13 1.0358540921952476E-1
60 38 2.777794112507712E-2
60 37 2.7863821371748476E-2
60 36 2.7868232427227576E-2
60 35 2.841873867229509E-2
60 34 3.191870774392274E-1
60 33 2.785892861662199E-2
60 32 7.80752423916788E-2
60 31 7.775098831407838E-2
60 30 2.956920015076658E-2
60 29 2.09740649658839E-1
60 28 1.2211960891659668E-1
60 27 1.0064580476238297E-1
60 26 1.0687499956098043E-1
60 25 1.0721823806531965E-1
61 43 5.440536316530494E-2
61 42 5.368109411733115E-1
61 41 2.3056762010626836E-1
61 40 2.033059258579729E-1
61 39 2.041584547046736E-1
62 48 5.335485446884049E-3
62 47 8.842689653302441E-2
62 46 5.427237853986588E-3
62 45 1.3003887343660236E-2
62 44 1.3181584486104219E-2
63 57 5.794654144712586E-2
63 56 2.6258197071415645E-2
63 55 3.2624200645345304E-2
63 54 1.8636968279414667E-1
63 53 2.5994158570228087E-2
63 52 7.662276044692011E-2
63 51 3.0986783924707252E-2
63 50 2.7650754548389025E-2
63 49 2.7690758545365436E-2
64 80 2.4126218070347842E-4
64 79 2.529851697865378E-4
64 78 2.481373146053317E-4
64 77 2.50243607767591E-4
64 76 2.562296975891845E-4
64 75 4.899932594886706E-3
64 74 2.522234953852873E-4
64 73 2.520451091507897E-4
64 72 2.5212762501362554E-4
64 71 2.491364084066338E-4
64 70 2.441500935532397E-4
64 69 2.456377785855261E-4
64 68 2.4342126546371957E-4
64 67 2.465255362163318E-4
65 94 2.3801289204170194E-4
65 93 2.495330007778014E-4
65 92 2.4476849660018683E-4
65 91 2.4688812034997994E-4
65 90 2.5281419603129604E-4
65 89 4.95126059222707E-3
65 88 2.524690670793759E-4
65 87 2.524414063699917E-4
65 86 2.5241532793445994E-4
65 85 2.4940655854359465E-4
65 84 2.44382727970892E-4
65 83 2.459262240925853E-4
65 82 2.4368960935144545E-4
65 81 2.4679112191104056E-4
66 138 1.5792283948242352E-3
66 137 5.038131179958251E-3
66 136 1.5862847828735868E-3
66 135 2.243041568950219E-3
66 134 2.0052185845282973E-3
66 133 1.2934013742144207E-2
66 132 1.6952635335600662E-3
66 131 1.6714643632190676E-3
66 130 1.7076934833655728E-3
66 129 3.0398743634426646E-3
66 128 3.0631407020517165E-3
66 127 1.630472743735628E-3
66 126 1.6187406053591426E-3
66 125 1.6583353702169464E-3
66 124 1.6582273026720011E-3
67 24 7.0517271829952394E-3
67 23 7.063999211485402E-3
67 22 7.264852941974904E-3
67 21 7.246142982774368E-3
67 20 7.066869197200887E-3
67 19 7.2409686227459516E-3
67 18 1.212672981305623E-2
67 17 1.4132845350707588E-2
67 16 7.397430699700446E-3
67 15 7.3969453150365475E-3
67 14 3.5847387781675816E-2
67 13 2.678561234806711E-2
68 38 4.318681458770018E-3
68 37 2.929561783633953E-3
68 36 2.9300255556121272E-3
68 35 2.9879049841257193E-3
68 34 3.3869836953274337E-3
68 33 2.691272810516612E-2
68 32 2.9510943060338732E-2
68 31 3.0118960328285207E-3
68 30 5.69189633481143E-3
68 29 6.254985805190407E-3
68 28 1.2277618322484429E-2
68 27 1.1014422196378288E-2
68 26 1.042832291839165E-2
68 25 3.1160395257383154E-3
69 57 9.537251556544034E-4
69 56 9.60258511150504E-4
69 55 9.601722607198183E-4
69 54 1.923536626774489E-3
69 53 9.88277448545932E-4
69 52 9.533911909815733E-4
69 51 4.386350514457064E-3
69 50 3.867700143796837E-3
69 49 9.83004280301035E-4
70 66 3.616095442329126E-4
70 65 3.639371562118416E-4
70 64 3.639849729925769E-4
70 63 9.903546284771114E-4
70 62 3.61825795428191E-4
70 61 5.422980931293085E-4
70 60 2.231595854794431E-3
70 59 1.9200264461551918E-3
70 58 5.403090510138509E-4
71 94 5.483473189022123E-2
71 93 1.0271703069921484E-1
71 92 5.639112558613906E-2
71 91 1.4507528166652667E-1
71 90 1.1166474006783825E-1
71 89 1.1148195793115764E-1
71 88 1.3155354392843233E-1
71 87 1.3548521007557746E-1
71 86 1.3555729700360689E-1
71 85 2.322699176795186E-1
71 84 5.6302250066928385E-2
71 83 5.6657849275360425E-2
71 82 6.394852700016421E-2
71 81 1.9652018234873306E-1
72 102 6.647139212928882E-2
72 101 1.220018296822938E-1
72 100 4.2045258391287955E-2
72 99 6.75633753367098E-2
72 98 1.9126985128800705E-1
72 97 1.05903061951906E-1
72 96 2.4043364298741393E-1
72 95 4.350373911449827E-2
73 110 1.5735865278046002E-1
73 109 4.203262584793905E-1
73 108 4.22555382313341E-2
73 107 1.9106065680951673E-1
73 106 7.036290090984557E-2
73 105 1.06732645848878E-1
73 104 2.3934892130117888E-1
73 103 4.350110296756726E-2
74 123 7.784420298459156E-2
74 122 1.2299027415853962E-1
74 121 3.002659637684996E-1
74 120 4.6790718083053275E-2
74 119 1.2818719438180048E-1
74 118 1.5122073188968083E-1
74 117 1.3077849492138388E-1
74 116 1.2905172579274196E-1
74 115 3.0313477311087034E-1
74 114 4.747391341907358E-2
74 113 1.0625722829672418E-1
74 112 2.73141834136864E-1
74 111 4.5288845473780835E-2
75 138 8.517310006840269E-2
75 137 1.2354818631773655E-1
75 136 5.607058260824808E-2
75 135 2.773414526714565E-1
75 134 4.75917595700119E-2
75 133 1.3427149924106357E-1
75 132 1.7839335318313898E-1
75 131 1.3508978838594513E-1
75 130 1.9641012230086985E-1
75 129 3.4055095857710266E-1
75 128 4.906049604983341E-2
75 127 1.2098982339172756E-1
75 126 1.0674469898417001E-1
75 125 3.3352065558284577E-1
75 124 4.792583190227541E-2
76 148 1.897446050514089E-1
76 147 1.9523843683710781E-1
76 146 2.7392981838062014E-1
76 145 2.037305962236745E-1
76 144 4.8145263047519077E-1
76 143 5.049874446147555E-2
76 142 1.2922230112269018E-1
76 141 1.1702360245716599E-1
76 140 3.552916816679628E-1
76 139 4.9457744800765584E-2
77 172 1.4308833315715959E-2
77 171 4.34105238063091E-3
77 170 1.2489860360380592E-2
77 169 7.880125341576817E-3
77 168 1.8697482302126235E-2
77 167 4.227437588565327E-3
77 166 4.290403881904288E-3
77 165 4.227666724936183E-3
77 164 4.205567430841968E-3
77 163 4.2566127800016725E-3
77 162 4.086603766850277E-3
77 161 4.150790498036762E-3
78 181 2.5772888414918906E-3
78 180 4.7572709907008396E-4
78 179 1.396606950740182E-3
78 178 2.25526359933891E-3
78 177 4.750857643447512E-4
78 176 4.451757101842488E-4
78 175 4.602000292881572E-4
78 174 4.612489280431727E-4
78 173 4.613201449508502E-4
79 194 1.9263994268337397E-2
79 193 4.403717757804597E-3
79 192 1.2920486206733752E-2
79 191 4.1703426091787794E-2
79 190 4.468090656736085E-3
79 189 4.350557612298409E-3
79 188 4.333849177605821E-3
79 187 4.310451810465082E-3
79 186 4.422440085748838E-3
79 185 4.423433719974183E-3
79 184 4.187793089096702E-3
79 183 4.259566351077876E-3
79 182 4.259608063795903E-3
80 208 4.178111024262111E-3
80 207 8.670178683422743E-4
80 206 1.2767975445901992E-3
80 205 2.1117680837754544E-3
80 204 6.068693829106601E-4
80 203 7.744188424080479E-3
80 202 5.38234714438395E-4
80 201 6.467515804210322E-3
80 200 5.386510734399048E-4
81 12 7.056685051919109E-3
81 11 7.068466714717053E-3
81 10 7.26906827765516E-3
81 9 7.2506939997761186E-3
81 8 7.0722481299328455E-3
81 7 7.245937691755992E-3
81 6 1.2142815927539387E-2
81 5 1.3980037097663971E-2
81 4 7.403041985455172E-3
81 3 7.402175433089494E-3
81 2 3.603039055023681E-2
81 1 2.6743685650803112E-2
82 38 7.1135459125111445E-3
82 37 2.9277556539304473E-3
82 36 2.9282191399845115E-3
82 35 2.9860628847464777E-3
82 34 3.7925980096353315E-3
82 33 2.6913020882120147E-2
82 32 3.010093380176458E-3
82 31 2.9052002054010914E-2
82 30 5.744508432550228E-3
82 29 6.168311201003153E-3
82 28 1.2340301018935953E-2
82 27 1.0909289201236051E-2
82 26 3.114050994217836E-3
82 25 1.0366404247837819E-2
83 57 9.489211774940346E-4
83 56 9.554216240363017E-4
83 55 9.553358080548731E-4
83 54 2.0518788339244183E-3
83 53 9.832994281476527E-4
83 52 9.485888950238652E-4
83 51 4.3870933111271986E-3
83 50 9.780592658090149E-4
83 49 3.814278698147342E-3
84 66 3.614513978325212E-4
84 65 3.6377799185309745E-4
84 64 3.63825787721631E-4
84 63 1.035749659918827E-3
84 62 3.616675544524526E-4
84 61 5.420609243578109E-4
84 60 2.2148304611178085E-3
84 59 5.400755024129745E-4
84 58 1.9348198818724324E-3
85 80 5.48448648794099E-2
85 79 1.0454609084927839E-1
85 78 5.640775297391163E-2
85 77 1.4360225319952347E-1
85 76 1.1161644947958241E-1
85 75 1.0991572134380383E-1
85 74 1.2971138919268208E-1
85 73 1.326198964799119E-1
85 72 1.3480586469749894E-1
85 71 2.2888505782286434E-1
85 70 5.550135894560311E-2
85 69 5.583954657344003E-2
85 68 6.292196079453889E-2
85 67 1.93285877972379E-1
86 102 6.755329360344298E-2
86 101 4.228645710433712E-2
86 100 1.4443420323083808E-1
86 99 6.956666649047798E-2
86 98 1.9292086158892177E-1
86 97 1.0670387587564889E-1
86 96 4.3758566141485836E-2
86 95 2.4183088732083335E-1
87 110 1.6605637132248752E-1
87 109 4.2496094774622954E-2
87 108 4.381702711217973E-1
87 107 1.9364477731230148E-1
87 106 6.786071904231321E-2
87 105 1.0673153756468279E-1
87 104 4.375014822236149E-2
87 103 2.4064638791993978E-1
88 123 7.803051067450102E-2
88 122 1.2254415484314353E-1
88 121 4.680839232313758E-2
88 120 2.9910210479556976E-1
88 119 1.283503341206068E-1
88 118 1.5120280647614323E-1
88 117 1.321563463637897E-1
88 116 1.30822466751017E-1
88 115 4.7490242039511465E-2
88 114 3.024579878939131E-1
88 113 1.0392804385204009E-1
88 112 4.530636064258241E-2
88 111 2.7679773093641E-1
89 138 8.344017591132287E-2
89 137 1.2388139313400519E-1
89 136 5.950927975667798E-2
89 135 4.761650252969127E-2
89 134 2.8191348191051957E-1
89 133 1.349141972884903E-1
89 132 1.7746906193110326E-1
89 131 1.3678107589266597E-1
89 130 1.9747142101966414E-1
89 129 4.9094275559535994E-2
89 128 3.40557238774715E-1
89 127 1.197995248963875E-1
89 126 1.0772270702628968E-1
89 125 4.796161121031644E-2
89 124 3.339879241759864E-1
90 148 1.9178442713773658E-1
90 147 1.9984033582532068E-1
90 146 2.739595446450521E-1
90 145 2.0457100143411946E-1
90 144 6.842796838802646E-2
90 143 3.5881107227277587E-1
90 142 1.3145248004051202E-1
90 141 1.1935730791574481E-1
90 140 4.972342962282607E-2
90 139 3.548172088069239E-1
91 160 1.4377337439076666E-2
91 159 4.409806717116925E-3
91 158 1.295290442503464E-2
91 157 7.954050047565435E-3
91 156 1.877846919817688E-2
91 155 4.342013498131754E-3
91 154 4.406313982380782E-3
91 153 4.3395716930961035E-3
91 152 4.319128217000239E-3
91 151 4.3713416069125054E-3
91 150 4.197349871529638E-3
91 149 4.2628604179546494E-3
92 181 2.6304864621411335E-3
92 180 4.803966287152919E-4
92 179 1.3420426443384332E-3
92 178 4.7973861018505597E-4
92 177 2.2161633140871284E-3
92 176 4.4954536072569425E-4
92 175 4.64717151990831E-4
92 174 4.657763462783922E-4
92 173 4.658482622201636E-4
93 194 1.9171671666102605E-2
93 193 4.394522778979744E-3
93 192 1.2550735352287715E-2
93 191 4.458747068978569E-3
93 190 4.204287640955561E-2
93 189 4.3414736320522875E-3
93 188 4.3248000846326014E-3
93 187 4.30145157128024E-3
93 186 4.413206014634591E-3
93 185 4.414197574148029E-3
93 184 4.179048961771814E-3
93 183 4.25067236091881E-3
93 182 4.250713986540529E-3
94 208 4.718404436279401E-3
94 207 8.735327644977238E-4
94 206 1.2941920596427421E-3
94 205 6.120385237151754E-4
94 204 2.118716350671998E-3
94 203 6.468087192344311E-3
94 202 1.0924641328775935E-3
94 201 5.432122928685218E-4
94 200 9.562751349848977E-3
95 80 5.1861269556992785E-3
95 79 3.7427172756559914E-2
95 78 5.333913555109424E-3
95 77 8.64308871577056E-3
95 76 2.514185873977802E-2
95 75 1.5101102980146115E-2
95 74 4.0279855019869526E-2
95 73 5.417914779712639E-3
95 72 5.419688525350177E-3
95 71 2.0251684559049667E-2
95 70 5.2482049930948895E-3
95 69 5.280183993802893E-3
95 68 5.232538240062525E-3
95 67 5.299267066689926E-3
96 94 5.1654399246392054E-3
96 93 3.7089002500854035E-2
96 92 5.312052442986987E-3
96 91 8.78039311088601E-3
96 90 2.4741265325463602E-2
96 89 1.5593953548658612E-2
96 88 4.1116493050277425E-2
96 87 5.478572643313614E-3
96 86 5.47800667988654E-3
96 85 2.0279244132474786E-2
96 84 5.303680355818348E-3
96 83 5.3371778543031085E-3
96 82 5.288638050510059E-3
96 81 5.355948172515113E-3
97 123 3.1958768584514708E-3
97 122 1.4356515524785283E-2
97 121 4.605470807936744E-3
97 120 4.731291892830433E-3
97 119 1.5531423651213452E-2
97 118 4.27298301867327E-3
97 117 3.41807533609794E-2
97 116 3.5563776187098384E-2
97 115 6.541659844677243E-3
97 114 6.514941323946069E-3
97 113 3.908042482531587E-2
97 112 2.4310472846366116E-2
97 111 2.273605379178552E-2
98 138 9.24587863271248E-3
98 137 4.8067553860297194E-2
98 136 9.287191534445665E-3
98 135 1.702898686926114E-2
98 134 1.6922864630249012E-2
98 133 3.369888910851404E-2
98 132 8.364840691713567E-2
98 131 9.785890813435864E-3
98 130 9.998000758357306E-3
98 129 5.2243055287942604E-2
98 128 5.184244376321308E-2
98 127 9.545897953666902E-3
98 126 9.477210024874155E-3
98 125 9.709024746269656E-3
98 124 9.708392045256949E-3
99 148 2.065986991040857E-2
99 147 2.8957561459772536E-2
99 146 5.137048109868936E-3
99 145 5.03564581359875E-3
99 144 1.1458273175200264E-2
99 143 8.443921442680219E-3
99 142 3.6579648887639796E-3
99 141 3.620392118173273E-3
99 140 3.7081932815436103E-3
99 139 3.707774415640223E-3
100 160 1.89877302094806E-5
100 159 1.8989082614175186E-5
100 158 4.0924986181508385E-4
100 157 1.9014986840156238E-5
100 156 1.877720362347576E-5
100 155 1.8697158020066918E-5
100 154 1.897404253811095E-5
100 153 1.868664335570086E-5
100 152 1.8598611638800782E-5
100 151 1.8823447881795666E-5
100 150 1.8074221521251443E-5
100 149 1.8356316691848308E-5
101 172 1.691133565413935E-5
101 171 1.691339819347685E-5
101 170 3.940359880669981E-4
101 169 1.6935158674475567E-5
101 168 1.6723745942188988E-5
101 167 1.6470737739194333E-5
101 166 1.671606396395054E-5
101 165 1.6471630489233053E-5
101 164 1.6385528289112658E-5
101 163 1.6584408708090157E-5
101 162 1.592202781889856E-5
101 161 1.617210905453131E-5
102 194 3.486211634617429E-4
102 193 3.443691440403048E-4
102 192 2.431727622038082E-3
102 191 6.267767859049184E-4
102 190 6.320071938943695E-4
102 189 3.4021203979070117E-4
102 188 3.3890544621005173E-4
102 187 3.3707578051888124E-4
102 186 3.4583322334856055E-4
102 185 3.4591092518743627E-4
102 184 3.274839126450043E-4
102 183 3.330965559052662E-4
102 182 3.3309981782480614E-4
103 80 4.952622538380376E-3
103 79 1.0888377663960435E-2
103 78 5.093755073191335E-3
103 77 5.765255136214501E-3
103 76 1.5974959954079496E-2
103 75 2.3717181579507005E-2
103 74 3.940058831713208E-2
103 73 5.1739741580257795E-3
103 72 5.175668041090513E-3
103 71 1.9082284115105298E-2
103 70 5.01190552350014E-3
103 69 5.042444675552191E-3
103 68 4.996944163156645E-3
103 67 5.060668536573952E-3
104 94 5.243296367514863E-3
104 93 1.109819347388994E-2
104 92 5.392118712968589E-3
104 91 6.122902797912589E-3
104 90 1.8181157107261182E-2
104 89 2.4790907729547285E-2
104 88 4.097114100971715E-2
104 87 5.561148800285197E-3
104 86 5.560574306336062E-3
104 85 2.051834165564368E-2
104 84 5.3836204369494545E-3
104 83 5.4176228287473325E-3
104 82 5.368351405476301E-3
104 81 5.436676063851014E-3
105 123 3.196208829067817E-3
105 122 4.897122198846482E-3
105 121 3.4758817346471895E-3
105 120 3.528076201614401E-3
105 119 5.439618452555902E-3
105 118 8.62463701924914E-3
105 117 3.465702415874076E-2
105 116 3.349372301711238E-2
105 115 6.514085336328782E-3
105 114 6.552946409010943E-3
105 113 4.005594694165333E-2
105 112 2.092798061771008E-2
105 111 2.376685939301347E-2
106 138 3.0042219850006076E-3
106 137 2.304590441097303E-2
106 136 3.0176456013578335E-3
106 135 6.832277500710142E-3
106 134 6.9581947561534385E-3
106 133 1.1144249072635152E-2
106 132 1.8028877049745894E-2
106 131 3.1796857272735654E-3
106 130 3.248605662856077E-3
106 129 7.136342911715509E-3
106 128 7.059271224163392E-3
106 127 3.101705920896899E-3
106 126 3.079387459452549E-3
106 125 3.154709979910385E-3
106 124 3.154504399200556E-3
107 148 5.82784830415818E-2
107 147 2.085995722885791E-1
107 146 1.770485797316939E-2
107 145 1.7355374531469115E-2
107 144 8.98647323677919E-2
107 143 6.70756377920561E-2
107 142 1.2607191414459805E-2
107 141 1.2477696702177675E-2
107 140 1.2780303781983771E-2
107 139 1.2778860158881425E-2
108 160 4.0981647431233734E-6
108 159 4.098456635686447E-6
108 158 5.642993574225791E-5
108 157 4.10404760335042E-6
108 156 4.052726314056987E-6
108 155 4.035449890486973E-6
108 154 4.095210502063295E-6
108 153 4.033180486702773E-6
108 152 4.014180402201026E-6
108 151 4.062707316890276E-6
108 150 3.901000097463496E-6
108 149 3.961885335961788E-6
109 172 4.7602675671300515E-6
109 171 4.760848138606783E-6
109 170 9.829266857399398E-5
109 169 4.766973362188279E-6
109 168 4.7074640961336E-6
109 167 4.636246377582877E-6
109 166 4.705301743460355E-6
109 165 4.636497672284951E-6
109 164 4.612261295036337E-6
109 163 4.668242917514753E-6
109 162 4.481793406465416E-6
109 161 4.552187231026458E-6
110 194 8.178610736581873E-5
110 193 8.07885887026655E-5
110 192 5.27353270139642E-4
110 191 1.3625280335532482E-4
110 190 1.4973420753789266E-4
110 189 7.981333702513419E-5
110 188 7.950681173616614E-5
110 187 7.907757435661145E-5
110 186 8.113205995469183E-5
110 185 8.115028871301994E-5
110 184 7.682733364264593E-5
110 183 7.814405302861686E-5
110 182 7.814481827103377E-5
111 12 5.113619218871841E-4
111 11 5.122156788122924E-4
111 10 5.267522494545809E-4
111 9 5.254207593880148E-4
111 8 5.124896986584346E-4
111 7 5.25076094039857E-4
111 6 5.356263138480351E-4
111 5 5.356298837870264E-4
111 4 5.364606397538383E-4
111 3 5.363978451300356E-4
111 2 1.3910095671138515E-2
111 1 5.296875553637628E-4
112 24 5.062811523525282E-4
112 23 5.071622268133617E-4
112 22 5.215825887314665E-4
112 21 5.202393008448678E-4
112 20 5.073682784142766E-4
112 19 5.198678059061257E-4
112 18 5.303123528134156E-4
112 17 5.303166811002914E-4
112 16 5.311010539550589E-4
112 15 5.310662055979692E-4
112 14 1.377271556317734E-2
112 13 5.244298422672011E-4
113 38 1.6148579230804445E-2
113 37 2.2569317272928303E-3
113 36 2.2572890168020047E-3
113 35 2.30187927576144E-3
113 34 2.8354372174280327E-3
113 33 1.1835426750289703E-1
113 32 1.997977744923965E-2
113 31 1.923406121802485E-2
113 30 2.3950650946463962E-3
113 29 2.4259339804896638E-3
113 28 1.6570501016698002E-2
113 27 1.2833853177398429E-2
113 26 3.693873365836662E-3
113 25 3.68326333591261E-3
114 80 1.1886435441665376E-1
114 79 2.3645276133365582E-2
114 78 4.5497121889221853E-1
114 77 1.5349062029910643E-1
114 76 8.333048710679473E-2
114 75 8.841589997501685E-2
114 74 2.3574086183549628E-2
114 73 1.787736862917442E-1
114 72 1.7324441754462977E-1
114 71 8.335943170625187E-2
114 70 2.2819505131168337E-2
114 69 2.295855171408689E-2
114 68 2.3005241068614038E-1
114 67 1.0680914865325988E-1
115 94 1.136467669665676E-1
115 93 2.335561326618813E-2
115 92 4.545282370413067E-1
115 91 1.4717966495736648E-1
115 90 8.269897621696616E-2
115 89 8.851969513673805E-2
115 88 2.3630421122662892E-2
115 87 1.7530937141359973E-1
115 86 1.759367874605317E-1
115 85 8.358531394297926E-2
115 84 2.2873561675742775E-2
115 83 2.3018028733742174E-2
115 82 2.318759052763844E-1
115 81 1.0736054837362094E-1
116 102 1.3069139171418259E-2
116 101 1.3107265554530935E-2
116 100 1.3108098628934865E-2
116 99 1.3405402467852736E-2
116 98 3.910517298351336E-2
116 97 7.658143539782236E-2
116 96 2.4024889743882713E-2
116 95 2.381127878916371E-2
117 110 2.5065976262179507E-1
117 109 5.4921209067247644E-2
117 108 2.7552692078662605E-1
117 107 3.814437685729493E-2
117 106 1.3360866994180428E-2
117 105 7.543615475127441E-2
117 104 2.379761987014487E-2
117 103 2.3763413408602996E-2
118 138 1.4036584794882484E-1
118 137 2.2966092086143333E-2
118 136 4.4136712683765783E-1
118 135 8.444230867508731E-2
118 134 8.024570758042252E-2
118 133 9.034202126015E-2
118 132 2.3620213511118284E-2
118 131 1.92476111361492E-1
118 130 1.5482960741943586E-1
118 129 8.829214760940592E-2
118 128 8.87835897629885E-2
118 127 2.27174793586332E-2
118 126 2.971450746797189E-1
118 125 1.2677802325498636E-1
118 124 1.2599881942436755E-1
119 148 3.554191493283469E-2
119 147 1.5620139464001958E-2
119 146 1.7790727433820852E-1
119 145 1.6812284241776937E-1
119 144 5.472425310121773E-2
119 143 3.9890074038403514E-2
119 142 2.3913525779719946E-2
119 141 2.8305850063466537E-1
119 140 9.488532183537575E-2
119 139 9.472852802428532E-2
120 160 2.4030963827936437E-2
120 159 3.5488469343872052E-3
120 158 3.553654103700047E-3
120 157 3.423990461507621E-2
120 156 1.2066656317211903E-2
120 155 3.494289496204279E-3
120 154 3.546036112563003E-3
120 153 3.492324423158899E-3
120 152 3.4758722808939297E-3
120 151 3.5178916573906063E-3
120 150 3.377869639118138E-3
120 149 3.4305900680993043E-3
121 172 2.3942643015185807E-2
121 171 3.523477633313978E-3
121 170 3.5280422471561327E-3
121 169 3.432801634849988E-2
121 168 1.1888194338141384E-2
121 167 3.4312605523953367E-3
121 166 3.4823680504809215E-3
121 165 3.431446534228058E-3
121 164 3.4135093241634156E-3
121 163 3.4549410163612375E-3
121 162 3.316950754374658E-3
121 161 3.3690488384015187E-3
122 181 2.7042818254752677E-2
122 180 4.673524241425578E-3
122 179 2.1218893767721164E-2
122 178 9.57873236154241E-3
122 177 9.575217678508963E-3
122 176 4.373388603060071E-3
122 175 4.520986920835711E-3
122 174 4.531291260798576E-3
122 173 4.531990892888236E-3
123 208 1.9546101578878906E-2
123 207 1.6406534173446217E-3
123 206 6.695275928955589E-3
123 205 2.6802035888152513E-3
123 204 2.6601950602009785E-3
123 203 9.105520482260073E-3
123 202 1.4562887386129358E-3
123 201 4.471215410076428E-3
123 200 7.539096585696436E-3
124 12 2.3329613024136455E-3
124 11 2.3368563555701155E-3
124 10 2.403175835622725E-3
124 9 2.3971012440919697E-3
124 8 2.3381065028137424E-3
124 7 2.395528794355064E-3
124 6 2.9626483412231994E-2
124 5 2.443677829353779E-3
124 4 2.4474679463714257E-3
124 3 2.4471814615530207E-3
124 2 2.494276792037719E-2
124 1 5.589434581950512E-3
125 24 2.350628867981598E-3
125 23 2.354719636624383E-3
125 22 2.4216723937118853E-3
125 21 2.4154355996507657E-3
125 20 2.355676320157146E-3
125 19 2.4137107739817506E-3
125 18 3.0157265363016408E-2
125 17 2.462224189018462E-3
125 16 2.465865978698189E-3
125 15 2.4657041801524676E-3
125 14 2.495375781638923E-2
125 13 5.670129684532524E-3
126 38 2.9745547942526727E-3
126 37 2.983751138154391E-3
126 36 2.9842234887207625E-3
126 35 3.0431735377239736E-3
126 34 3.034718692684299E-3
126 33 5.267964349525603E-3
126 32 3.0676636340861347E-3
126 31 3.2149578405639163E-3
126 30 1.9775611374078114E-2
126 29 3.1665456320511902E-3
126 28 3.1111380231043997E-3
126 27 2.341563256014864E-2
126 26 5.012239663085529E-3
126 25 5.018888992969856E-3
127 66 2.4093566445761105E-3
127 65 2.4248652158427343E-3
127 64 2.425183812738818E-3
127 63 1.2228988223108504E-2
127 62 2.4107974977354116E-3
127 61 3.6132605868955704E-3
127 60 1.798127393400447E-2
127 59 6.227935172097522E-3
127 58 6.249670966174126E-3
128 80 4.0576296380170307E-1
128 79 3.8915452798590944E-1
128 78 7.541956908853417E-2
128 77 2.8754971463043977E-1
128 76 3.413289946889981E-1
128 75 4.834893477213528E-2
128 74 1.756845059950029E-1
128 73 2.0900531225513017E-1
128 72 1.293661534974389E-1
128 71 1.3306052822601155E-1
128 70 5.049168341865587E-1
128 69 4.7030105477257104E-2
128 68 1.719749917816892E-1
128 67 1.6997953804879617E-1
129 94 4.079604207484529E-1
129 93 3.911620403623131E-1
129 92 7.503675209572741E-2
129 91 2.9121699992646355E-1
129 90 3.4016089434763336E-1
129 89 4.9059905295475596E-2
129 88 1.7794807668363322E-1
129 87 2.078241885746076E-1
129 86 1.3375345314112097E-1
129 85 1.3489877072581274E-1
129 84 5.117881292967879E-1
129 83 4.772562661695199E-2
129 82 1.7530459038857307E-1
129 81 1.7280074857099514E-1
130 102 4.85249473125188E-1
130 101 4.3462794714998504E-1
130 100 4.4948085553010825E-1
130 99 4.961381262944261E-1
130 98 7.756728086572362E-2
130 97 3.451822243557123E-1
130 96 3.2839168410346514E-1
130 95 3.288254839059094E-1
131 110 2.5033686635889667E-2
131 109 2.5102389906026094E-2
131 108 2.509096133181727E-2
131 107 1.8379867555999055E-1
131 106 2.548311775221911E-2
131 105 2.501028222482867E-2
131 104 4.16385553527443E-2
131 103 4.344638419907992E-2
132 123 4.2568308432209123E-1
132 122 3.2425811698903517E-1
132 121 2.574696092874761E-1
132 120 2.598385675340369E-1
132 119 3.240147045094516E-1
132 118 4.7458701393648293E-2
132 117 1.8642627893912683E-1
132 116 6.905785359448827E-2
132 115 1.5102729476057153E-1
132 114 1.5089467936455436E-1
132 113 1.3505676744185685E-1
132 112 1.1894122730356876E-1
132 111 1.1610972733013594E-1
133 148 3.413209422786428E-1
133 147 1.2179458084043851E-1
133 146 1.542583402370506E-1
133 145 2.8820297670498285E-1
133 144 1.583068679248435E-1
133 143 1.167267954527136E-1
133 142 3.4407679455662654E-1
133 141 1.0161413040659452E-1
133 140 1.3603672674427011E-1
133 139 1.374021409474517E-1
134 160 3.564784823734162E-2
134 159 1.9033226684113972E-3
134 158 1.6380546894969115E-2
134 157 2.913194988274425E-3
134 156 5.013093169405107E-3
134 155 1.874062345060216E-3
134 154 1.9018151644266434E-3
134 153 1.8730084342713019E-3
134 152 1.86418479777872E-3
134 151 1.886720689936731E-3
134 150 1.8116238806400735E-3
134 149 1.839898976586288E-3
135 172 3.589537861720345E-2
135 171 1.8809039501124633E-3
135 170 1.594820539490356E-2
135 169 2.903825468176609E-3
135 168 5.0644853662014265E-3
135 167 1.831676598666337E-3
135 166 1.8589588195383137E-3
135 165 1.8317758795473923E-3
135 164 1.8222006323695493E-3
135 163 1.8443177114671767E-3
135 162 1.770655705954885E-3
135 161 1.79846672172888E-3
136 181 2.281712252591099E-3
136 180 9.156508918105377E-5
136 179 8.968359731169238E-5
136 178 1.3947319744772623E-4
136 177 1.365905220932743E-4
136 176 8.568474170157493E-5
136 175 8.857653222879759E-5
136 174 8.877841794906163E-5
136 173 8.879212535087967E-5
137 194 8.610248768866323E-2
137 193 6.228333505884811E-3
137 192 2.537942043301567E-2
137 191 2.4246870984588446E-2
137 190 2.467196932118911E-2
137 189 6.153147235182718E-3
137 188 6.129515906076239E-3
137 187 6.096424183643781E-3
137 186 6.2548131553211575E-3
137 185 6.256218487288071E-3
137 184 5.922943623330005E-3
137 183 6.024455081831572E-3
137 182 6.024514077601418E-3
138 208 4.038307333032937E-2
138 207 4.73000567097891E-3
138 206 5.550218951571412E-3
138 205 4.84922142550606E-3
138 204 4.8364981542372495E-3
138 203 8.060880999924026E-2
138 202 1.0284927734612715E-2
138 201 3.419925486690894E-2
138 200 2.9912408177021274E-2
139 12 2.10468263204178E-3
139 11 2.1081965569066377E-3
139 10 2.1680267211225466E-3
139 9 2.1625465242250228E-3
139 8 2.1093243780961426E-3
139 7 2.161127937621122E-3
139 6 2.204550929134742E-3
139 5 3.4942101907175345E-2
139 4 2.2079848790794816E-3
139 3 2.2077264266049303E-3
139 2 1.7617095087029428E-2
139 1 4.319359143471425E-3
140 24 2.139732476294536E-3
140 23 2.1434562247080787E-3
140 22 2.2044020382599224E-3
140 21 2.1987248039749556E-3
140 20 2.1443270754206148E-3
140 19 2.1971547281751515E-3
140 18 2.241297268567705E-3
140 17 3.588831612325825E-2
140 16 2.2446306129733245E-3
140 15 2.244483330853372E-3
140 14 1.7491145246892797E-2
140 13 4.459495486324343E-3
141 38 2.1090814481775403E-3
141 37 2.115602033493921E-3
141 36 2.1159369494344496E-3
141 35 2.1577349539499678E-3
141 34 2.5575259241863504E-3
141 33 2.1152305437920284E-3
141 32 2.175099437536323E-3
141 31 2.175060245297242E-3
141 30 2.2450854508842648E-3
141 29 1.7258956964885674E-2
141 28 1.4949031246202213E-2
141 27 2.2068185127954456E-3
141 26 3.3631789883309133E-3
141 25 3.3707593287805766E-3
142 57 5.304901185284803E-3
142 56 5.341241639460378E-3
142 55 5.340761889073944E-3
142 54 2.3197238482614013E-2
142 53 5.497091250135099E-3
142 52 5.303043575072641E-3
142 51 2.8537457846529966E-2
142 50 1.0001792961184211E-2
142 49 9.956186980895888E-3
143 80 3.567033721699506E-2
143 79 3.7403567732298325E-2
143 78 3.668681789364329E-2
143 77 3.699823092637212E-2
143 76 3.7883267453542924E-2
143 75 2.5972214462492976E-1
143 74 1.2638331772168432E-1
143 73 1.0775929360168038E-1
143 72 1.6475893094032357E-1
143 71 1.0261365346287295E-1
143 70 3.609731182571289E-2
143 69 4.932492360665674E-1
143 68 1.176921852991799E-1
143 67 1.3805706268864776E-1
144 94 3.591109588800585E-2
144 93 3.764923589342135E-2
144 92 3.693037329352847E-2
144 91 3.725017954886349E-2
144 90 3.814429864554685E-2
144 89 2.643431930575602E-1
144 88 1.2977616368388448E-1
144 87 1.1922775437806665E-1
144 86 1.6608876662073221E-1
144 85 1.0500635163122168E-1
144 84 3.687216899157509E-2
144 83 5.002961100557869E-1
144 82 1.1946618808291729E-1
144 81 1.400439579711916E-1
145 102 2.1876249930616334E-2
145 101 2.194006915198842E-2
145 100 2.194146362362363E-2
145 99 2.243911637643254E-2
145 98 1.7039150577215167E-1
145 97 2.1974653648508164E-2
145 96 3.832789379201197E-2
145 95 3.7370824459099804E-2
146 110 7.393758735865534E-2
146 109 7.414050409686579E-2
146 108 7.410674953181749E-2
146 107 7.694946548606149E-2
146 106 4.9216362929566637E-1
146 105 3.317825185106742E-1
146 104 3.293745988662377E-1
146 103 3.2697630481097306E-1
147 123 1.663643271224381E-2
147 122 1.7082171729665946E-2
147 121 1.74061935530058E-2
147 120 1.7407531044155412E-2
147 119 1.7448770454923282E-2
147 118 8.250784269728445E-2
147 117 3.0594656203097002E-2
147 116 9.346006421958028E-2
147 115 3.664526252895204E-2
147 114 3.6746787218811826E-2
147 113 6.608880826161051E-2
147 112 5.1676512845969344E-2
147 111 5.295605668810416E-2
148 138 8.609655894082292E-2
148 137 2.1765115001798052E-1
148 136 4.2475579989559635E-2
148 135 1.2190090016950157E-1
148 134 1.2155381557748884E-1
148 133 1.803103868962197E-1
148 132 1.0880089295708158E-1
148 131 1.3110242215465434E-1
148 130 8.600305632870428E-2
148 129 8.67624787297971E-2
148 128 8.65776802792854E-2
148 127 3.401623904825826E-1
148 126 6.316450732581172E-2
148 125 1.0194778664644566E-1
148 124 1.0131675992829993E-1
149 24 1.695650051082384E-5
149 23 1.6986009686655835E-5
149 22 1.746898021221146E-5
149 21 1.7423990463670647E-5
149 20 1.699291082066E-5
149 19 1.741154825820975E-5
149 18 1.7761359749603108E-5
149 17 1.776150471371698E-5
149 16 1.7787775134116277E-5
149 15 1.7786607983844045E-5
149 14 2.3069956892570804E-4
149 13 1.756434117085823E-5
150 38 1.2561307145942415E-5
150 37 1.2600142571194086E-5
150 36 1.2602137269881841E-5
150 35 1.285107861506346E-5
150 34 1.2815374480239687E-5
150 33 1.2597930045807234E-5
150 32 1.2954498334556683E-5
150 31 1.295426491267852E-5
150 30 1.3371322355432294E-5
150 29 2.955625899751771E-5
150 28 1.0212893249351743E-4
150 27 1.314341140240401E-5
150 26 4.493102971987166E-5
150 25 1.3402189536032194E-5
151 94 5.435296934363883E-3
151 93 5.698371808837024E-3
151 92 5.589568900186953E-3
151 91 5.637972935659271E-3
151 90 5.773301659692515E-3
151 89 2.5119512430020405E-2
151 88 2.528141642681088E-2
151 87 6.19146311915753E-3
151 86 8.089553254953386E-3
151 85 1.6985310448836274E-2
151 84 5.5807594317997845E-3
151 83 5.616006933170308E-3
151 82 6.286352635808326E-3
151 81 7.768437364752913E-3
152 102 1.9316413077449725E-4
152 101 1.9372764529193708E-4
152 100 1.9373995827529387E-4
152 99 1.9813416028563636E-4
152 98 7.953993683844065E-4
152 97 1.9403302140665957E-4
152 96 4.2031407896478087E-4
152 95 2.0046047814534506E-4
153 110 3.777949629472038E-5
153 109 3.788317958265581E-5
153 108 3.786593219183974E-5
153 107 3.931845966395412E-5
153 106 3.8457753614189974E-5
153 105 4.0965465275414486E-4
153 104 9.886989279304123E-5
153 103 3.898210469411727E-5
154 123 8.886294309981805E-3
154 122 9.124384299751072E-3
154 121 9.297459461647756E-3
154 120 9.298173878025232E-3
154 119 9.320201769917215E-3
154 118 6.806442643377426E-2
154 117 1.030605382301349E-2
154 116 1.934319702007976E-2
154 115 8.005175427987592E-2
154 114 9.433937321871021E-3
154 113 1.3689380982162372E-2
154 112 2.6222892583525507E-2
154 111 8.99972424451306E-3
155 138 3.0107413913527434E-2
155 137 7.969956621660255E-3
155 136 2.3522597288889923E-3
155 135 4.544919642583555E-2
155 134 2.4418010638351355E-3
155 133 6.813629871358789E-3
155 132 5.549281598621036E-3
155 131 4.869020384753235E-3
155 130 3.241863025733165E-3
155 129 8.75161456522065E-3
155 128 2.5171578552486942E-3
155 127 3.291021231855661E-3
155 126 3.8017795240005738E-3
155 125 5.569115726712267E-3
155 124 2.4589413877838407E-3
156 172 2.3161645325205119E-1
156 171 2.2947080471576206E-1
156 170 2.041401526887852E-1
156 169 2.0377755057358457E-1
156 168 3.6442649520880943E-1
156 167 1.5039201456879883E-1
156 166 2.0005663309561109E-1
156 165 9.953834985286857E-2
156 164 9.901803275831694E-2
156 163 3.750697175271848E-1
156 162 9.621709134627535E-2
156 161 9.772833660765501E-2
157 181 2.6454849623127713E-1
157 180 2.741298934721108E-1
157 179 1.9644810582760822E-1
157 178 5.107991324588527E-1
157 177 7.637797530077146E-2
157 176 1.0147154938352458E-1
157 175 1.8981651942356123E-1
157 174 4.405213610028085E-1
157 173 7.41649219597241E-2
158 194 2.6310430214715064E-1
158 193 2.1594706542035502E-1
158 192 1.959258982011966E-1
158 191 5.115097640513994E-1
158 190 7.637658151646222E-2
158 189 2.2154056190617258E-1
158 188 2.0060904875127977E-1
158 187 1.970798757913028E-1
158 186 5.794828621993796E-1
158 185 7.561322543600113E-2
158 184 1.62366560095213E-1
158 183 3.932176013068449E-1
158 182 7.281282487458357E-2
159 199 1.884887599966727E-1
159 198 1.6423987418770103E-1
159 197 2.589804797940214E-1
159 196 4.710993038701041E-1
159 195 7.414754056888587E-2
160 208 1.9212654521405012E-1
160 207 2.4286335331905987E-1
160 206 2.421617937083765E-1
160 205 4.8208619814556225E-1
160 204 7.727601968773906E-2
160 203 1.67717748947732E-1
160 202 1.5189262616206356E-1
160 201 4.1805844063162484E-1
160 200 6.858940676216589E-2
161 12 1.586972101045391E-5
161 11 1.589621669508019E-5
161 10 1.6347347901116232E-5
161 9 1.630602613862243E-5
161 8 1.5904720688677436E-5
161 7 1.6295329716610703E-5
161 6 1.6622747613384975E-5
161 5 1.6622858403675355E-5
161 4 1.6648640271383493E-5
161 3 1.6646691488890995E-5
161 2 2.22464544356358E-4
161 1 1.6438442845548427E-5
162 38 1.1799162108440043E-5
162 37 1.1835641232210428E-5
162 36 1.1837514904504312E-5
162 35 1.2071351976806128E-5
162 34 1.203781415547649E-5
162 33 1.1833562949639578E-5
162 32 1.2168496805869885E-5
162 31 1.6771449993919376E-4
162 30 1.2560030436555115E-5
162 29 3.69396815496381E-5
162 28 1.0170813573752817E-4
162 27 1.2345947757911398E-5
162 26 1.2588752171613457E-5
162 25 2.8399543753474E-5
163 80 5.569507101051468E-3
163 79 5.840130829782055E-3
163 78 5.728218702577248E-3
163 77 5.776842215346195E-3
163 76 5.915030346082991E-3
163 75 2.4953618749777987E-2
163 74 2.6158396552184413E-2
163 73 6.203169852036179E-3
163 72 8.207974575310523E-3
163 71 1.7064662012568815E-2
163 70 5.6361742060119895E-3
163 69 5.670517227895021E-3
163 68 6.202718515096729E-3
163 67 7.7438127202920475E-3
164 102 1.639712687006973E-4
164 101 1.644496193654164E-4
164 100 1.6446007148970267E-4
164 99 1.6819017850115483E-4
164 98 6.859964282916586E-4
164 97 1.6470884404010716E-4
164 96 1.7017456743155898E-4
164 95 4.2074560299258884E-4
165 110 5.781035110533522E-5
165 109 5.7969007727767225E-5
165 108 5.794261569461386E-5
165 107 6.016527960992953E-5
165 106 5.884822343355311E-5
165 105 2.44419942723198E-4
165 104 5.9679664539611506E-5
165 103 3.9128474970672074E-4
166 123 8.861905132547861E-3
166 122 9.099341664441082E-3
166 121 9.271941807090634E-3
166 120 9.272654262692654E-3
166 119 9.294621697194288E-3
166 118 6.820001278352224E-2
166 117 1.0674523574020262E-2
166 116 1.9519897384676257E-2
166 115 9.407004572069957E-3
166 114 7.977913826379768E-2
166 113 1.366754399473804E-2
166 112 8.974415025175715E-3
166 111 2.562610770727436E-2
167 138 3.111769215649493E-2
167 137 7.974578291204171E-3
167 136 2.35756998906822E-3
167 135 2.4469186376466683E-3
167 134 4.503767589521375E-2
167 133 6.851938063558126E-3
167 132 5.769438399379949E-3
167 131 4.946654204890946E-3
167 130 3.224942261746853E-3
167 129 2.52285849414251E-3
167 128 8.699961734835395E-3
167 127 3.1217188388029337E-3
167 126 3.907054320486147E-3
167 125 2.464653095613396E-3
167 124 5.820300967751656E-3
168 160 2.316584418248399E-1
168 159 2.3012482533095108E-1
168 158 2.0374585607615356E-1
168 157 2.0398772412358157E-1
168 156 3.6446018665990293E-1
168 155 1.5085452060935103E-1
168 154 2.0364788676771892E-1
168 153 1.0056448128405265E-1
168 152 1.0009072771696807E-1
168 151 3.743719382653705E-1
168 150 9.726865747363866E-2
168 149 9.87867875071503E-2
169 181 2.619612590835861E-1
169 180 2.729166068730131E-1
169 179 1.9581798634533068E-1
169 178 7.624566578131514E-2
169 177 5.115487838406214E-1
169 176 1.0310485760225897E-1
169 175 1.9068360284377148E-1
169 174 7.402661964915713E-2
169 173 4.387007108549487E-1
170 194 2.6340277450973254E-1
170 193 2.1588839292784703E-1
170 192 1.9593031799999044E-1
170 191 7.624634372196937E-2
170 190 5.09304786665106E-1
170 189 2.196248982894284E-1
170 188 1.7847551438968912E-1
170 187 1.80806150241385E-1
170 186 7.546757362596405E-2
170 185 5.78731638182964E-1
170 184 1.50401622584347E-1
170 183 7.268818366822871E-2
170 182 4.1401315485826484E-1
171 199 1.9144028809809388E-1
171 198 1.643504123782379E-1
171 197 2.592961889799834E-1
171 196 7.421307317717074E-2
171 195 4.7207115020113916E-1
172 208 1.9268178413914E-1
172 207 2.434960597037162E-1
172 206 2.4282239896738203E-1
172 205 7.731687196473269E-2
172 204 4.819054731591229E-1
172 203 1.6874775187003246E-1
172 202 1.5359147823784056E-1
172 201 6.862227403994213E-2
172 200 3.968920861950814E-1
173 80 4.684544059705584E-4
173 79 4.912167215191087E-4
173 78 4.818037289293817E-4
173 77 4.8589348020846315E-4
173 76 4.975165623810788E-4
173 75 9.653553654316962E-4
173 74 1.64516888355382E-2
173 73 4.8939142281124E-4
173 72 4.895516423673891E-4
173 71 4.83743651265461E-4
173 70 4.7406181403835E-4
173 69 4.7695042511713146E-4
173 68 4.726466617391572E-4
173 67 4.786741680277372E-4
174 94 4.333724037186817E-4
174 93 4.5434814655024767E-4
174 92 4.45672966772092E-4
174 91 4.495323646036435E-4
174 90 4.6032252660117433E-4
174 89 8.742810434565174E-4
174 88 1.5382025761127087E-2
174 87 4.5964375348844463E-4
174 86 4.595962700341046E-4
174 85 4.5411792131118736E-4
174 84 4.449705616346111E-4
174 83 4.477809498394295E-4
174 82 4.437085355334405E-4
174 81 4.493557504451434E-4
175 123 8.763638986676937E-3
175 122 8.998442679183014E-3
175 121 9.169128927411304E-3
175 120 9.169833482876156E-3
175 119 9.19155732922255E-3
175 118 4.956462868593854E-2
175 117 1.6070929384823546E-2
175 116 5.280982562975746E-2
175 115 2.0417749472835384E-2
175 114 2.044781957538054E-2
175 113 3.935466163789344E-2
175 112 2.954356667386778E-2
175 111 2.7965667475627714E-2
176 138 8.469163102700701E-5
176 137 8.839670066341528E-5
176 136 8.507005444886145E-5
176 135 8.829409209556768E-5
176 134 8.83083389570479E-5
176 133 8.983068435482683E-5
176 132 8.714716518310777E-4
176 131 8.963810655158319E-5
176 130 9.158101948674634E-5
176 129 1.0049085724453199E-4
176 128 1.0049684700780235E-4
176 127 8.743978797786143E-5
176 126 8.681061113567979E-5
176 125 8.893401850786768E-5
176 124 8.892822300882998E-5
177 160 2.231975976353042E-1
177 159 2.0587770915329903E-1
177 158 4.231639182610251E-1
177 157 5.726658686976017E-2
177 156 1.6734854077461453E-1
177 155 7.405929481349095E-2
177 154 4.6058998398440676E-1
177 153 5.6277729457775275E-2
177 152 5.601260826649966E-2
177 151 1.2925474197089032E-1
177 150 5.443332596287666E-2
177 149 5.528289939294654E-2
178 172 2.2196449139419125E-1
178 171 2.074969059887352E-1
178 170 4.234009272630774E-1
178 169 5.7216329245464104E-2
178 168 1.669514976888286E-1
178 167 7.376570204097593E-2
178 166 4.576018193767132E-1
178 165 5.5650274756623624E-2
178 164 5.535937391975858E-2
178 163 1.283895533128809E-1
178 162 5.37934130676074E-2
178 161 5.4638325748445855E-2
179 194 1.5022190233768362E-1
179 193 1.9922605852513472E-1
179 192 2.845556821737326E-1
179 191 1.1574976365659738E-1
179 190 1.15890857217156E-1
179 189 1.2939596183365687E-1
179 188 4.133720279924006E-1
179 187 4.4387410637906016E-1
179 186 1.1009420802089703E-1
179 185 1.1232888748829131E-1
179 184 4.829508436814932E-1
179 183 3.3843257695465584E-1
179 182 3.350229461024542E-1
180 199 2.4182456818905584E-1
180 198 5.115973226463827E-1
180 197 7.107340587468798E-2
180 196 2.462228847738747E-1
180 195 2.4561956818831213E-1
181 208 1.3434672825447172E-1
181 207 3.8480795701163484E-1
181 206 5.920192708808919E-2
181 205 1.868333029655984E-1
181 204 1.870584183516497E-1
181 203 1.522222344841374E-1
181 202 3.781236839208251E-1
181 201 1.6102286308976957E-1
181 200 1.6655418373589762E-1
182 12 7.386145458207283E-5
182 11 7.39847717976279E-5
182 10 7.608444368620344E-5
182 9 7.589212237937792E-5
182 8 7.402435140563963E-5
182 7 7.584233868827902E-5
182 6 7.736621942291955E-5
182 5 7.736673506727119E-5
182 4 7.748673000918046E-5
182 3 7.747765991214062E-5
182 2 2.0053151402391624E-3
182 1 7.650842121526036E-5
183 24 7.260776879500737E-5
183 23 7.273412714440695E-5
183 22 7.48022078920802E-5
183 21 7.460956169965907E-5
183 20 7.276367781389078E-5
183 19 7.455628415121515E-5
183 18 7.605417765068533E-5
183 17 7.605479838730822E-5
183 16 7.61672883795258E-5
183 15 7.616229063974683E-5
183 14 2.0644404528959346E-3
183 13 7.521054370601037E-5
184 38 3.227558399131828E-4
184 37 3.237536946865642E-4
184 36 3.238049473661508E-4
184 35 3.302013575501949E-4
184 34 1.0044724504559778E-3
184 33 9.458765235582116E-4
184 32 6.272892433010281E-4
184 31 1.3627588478553093E-3
184 30 3.435687327310938E-4
184 29 1.0507544825078914E-3
184 28 5.177000657189462E-3
184 27 3.377126868422852E-4
184 26 5.150647078221548E-4
184 25 5.357857871536578E-4
185 80 4.241718676614435E-3
185 79 4.447824837117374E-3
185 78 4.3625929213497E-3
185 77 4.399624432126606E-3
185 76 4.504868067586204E-3
185 75 4.355324204788197E-2
185 74 4.434433560772847E-3
185 73 1.0300830624180314E-2
185 72 3.427286550236726E-2
185 71 1.3091580773774146E-2
185 70 4.2924921291114205E-3
185 69 4.318647664006983E-3
185 68 3.210009486688631E-2
185 67 1.518078651084911E-2
186 94 4.177326297342574E-3
186 93 4.37951388793377E-3
186 92 4.295892835207513E-3
186 91 4.333094013490458E-3
186 90 4.437101622369336E-3
186 89 4.4006894711889996E-2
186 88 4.4310443191936015E-3
186 87 1.0034799860021416E-2
186 86 3.443858788187876E-2
186 85 1.2831494484448532E-2
186 84 4.289122271537538E-3
186 83 4.316211925731002E-3
186 82 3.253631505098186E-2
186 81 1.4978136200175038E-2
187 102 2.70257265586024E-3
187 101 2.7104568262800114E-3
187 100 2.7106290980780864E-3
187 99 2.77210868101029E-3
187 98 1.1533786691391573E-2
187 97 2.7147293645307354E-3
187 96 3.69580003380549E-3
187 95 3.7323128323332516E-3
188 110 6.032736357232876E-4
188 109 6.049292796627567E-4
188 108 6.046538684692569E-4
188 107 6.278482361827528E-4
188 106 6.141042396011253E-4
188 105 1.192165295803772E-2
188 104 1.4687473113034054E-3
188 103 1.3406805088811177E-3
189 138 7.360901438930159E-2
189 137 6.175337027463554E-3
189 136 5.942939648468299E-3
189 135 2.099189820982689E-2
189 134 2.1495309035564288E-2
189 133 3.286641442464101E-2
189 132 6.351223296705774E-3
189 131 3.975080744385356E-2
189 130 1.6349698213847266E-2
189 129 1.1936981023662238E-2
189 128 1.1928067162892507E-2
189 127 1.904105337674607E-2
189 126 4.1723828041897705E-2
189 125 2.1407243812975936E-2
189 124 2.208950544139275E-2
190 160 2.2287903153328303E-1
190 159 2.4458676754207617E-1
190 158 5.721885806250964E-2
190 157 4.2199110557418185E-1
190 156 1.669098552005131E-1
190 155 3.1434884224352694E-1
190 154 5.7096197628806175E-2
190 153 6.994213537396795E-1
190 152 6.654516703746832E-1
190 151 2.340859628278338E-1
190 150 6.268968076274151E-1
190 149 6.703375885159135E-1
191 172 2.2391208165514886E-1
191 171 2.4416411716054617E-1
191 170 5.7259888214389904E-2
191 169 4.2171963212575236E-1
191 168 1.6723141573960346E-1
191 167 3.0537988626159285E-1
191 166 5.6518599076479846E-2
191 165 6.889994555004836E-1
191 164 6.629950820983915E-1
191 163 2.248497654369515E-1
191 162 6.169644015561161E-1
191 161 6.66758848432672E-1
192 181 1.501942915155142E-1
192 180 1.401944231150174E-1
192 179 2.845579936217895E-1
192 178 1.1589001734697281E-1
192 177 1.1576578634772464E-1
192 176 5.8915506093927386E-2
192 175 2.3409167833618244E-1
192 174 1.4425889790059793E-1
192 173 1.3146141841015013E-1
193 199 4.322155756525367E-2
193 198 3.670916335320881E-2
193 197 2.823162774830162E-1
193 196 8.50971509326328E-2
193 195 8.483933461405194E-2
194 208 2.1354653841047508E-1
194 207 5.935220669606977E-2
194 206 3.846559810495273E-1
194 205 1.873542067038043E-1
194 204 1.874975436858918E-1
194 203 1.2536724035253724E-1
194 202 5.268263809379437E-2
194 201 9.48864094385598E-2
194 200 9.678553695760145E-2
195 160 1.240737604672268E-1
195 159 1.7275080168665864E-2
195 158 7.63304500072947E-2
195 157 6.47761246334E-2
195 156 6.109252842534727E-2
195 155 1.7009505424014377E-2
195 154 1.726139764776522E-2
195 153 1.6999939839748884E-2
195 152 1.6919854087438825E-2
195 151 1.712439604459787E-2
195 150 1.644279674325946E-2
195 149 1.6699429292933898E-2
196 172 1.2448322325430182E-1
196 171 1.7395371566018458E-2
196 170 7.660746568686169E-2
196 169 6.557385684337703E-2
196 168 6.1388744958509274E-2
196 167 1.69400968192324E-2
196 166 1.7192413993209223E-2
196 165 1.694101500956065E-2
196 164 1.685245919442448E-2
196 163 1.7057007017738504E-2
196 162 1.637575056330456E-2
196 161 1.6632958249528047E-2
197 181 1.6410684360469607E-1
197 180 2.2259273902193736E-2
197 179 8.140366071806096E-2
197 178 8.863182433467212E-2
197 177 8.841595538375056E-2
197 176 2.0829774227629144E-2
197 175 2.1532762211247437E-2
197 174 2.1581840190469555E-2
197 173 2.1585172430019412E-2
198 194 7.200533936984672E-2
198 193 1.1463845504739206E-2
198 192 4.763862343500141E-2
198 191 2.7888115552211264E-2
198 190 2.785542941048952E-2
198 189 1.1325457958441002E-2
198 188 1.1281962229496435E-2
198 187 1.122105373879134E-2
198 186 1.1512583840583155E-2
198 185 1.1515170488927588E-2
198 184 1.0901746119885954E-2
198 183 1.1088587700562902E-2
198 182 1.108869628793869E-2
199 208 1.1724142359064761E-1
199 207 2.2842551815189748E-2
199 206 1.6109988637505E-2
199 205 1.741574672186271E-2
199 204 1.74741023935016E-2
199 203 1.253923767840828E-1
199 202 1.0357589718654572E-1
199 201 6.579415337663617E-2
199 200 7.846649622675662E-2
200 80 2.7409030148984605E-4
200 79 2.874084170882748E-4
200 78 2.819009227751525E-4
200 77 2.8429381554511047E-4
200 76 2.910944220851068E-4
200 75 6.527773019557708E-3
200 74 3.3573823328717305E-3
200 73 2.8634044405445895E-4
200 72 2.864341877056869E-4
200 71 2.830359615135783E-4
200 70 2.7737116756408717E-4
200 69 2.7906127928334785E-4
200 68 2.7654316911771503E-4
200 67 2.8006983253428807E-4
201 94 2.667148110987638E-4
201 93 2.796241270565214E-4
201 92 2.742850724330051E-4
201 91 2.766603011156912E-4
201 90 2.833010008792245E-4
201 89 6.585789817509272E-3
201 88 3.218471402158504E-3
201 87 2.8288325659973836E-4
201 86 2.828540333717572E-4
201 85 2.7948243718282565E-4
201 84 2.738527840548101E-4
201 83 2.7558241001329384E-4
201 82 2.7307608242294084E-4
201 81 2.7655160565765667E-4
202 123 1.466673551060241E-3
202 122 1.5059700540327498E-3
202 121 1.5345359278879738E-3
202 120 1.5346538415614058E-3
202 119 1.5382895220032854E-3
202 118 3.4011156581762535E-2
202 117 1.5065486105349636E-3
202 116 1.5065638121590905E-3
202 115 4.341272474422771E-3
202 114 4.328640600759385E-3
202 113 1.4613866924576844E-3
202 112 1.4852942969700383E-3
202 111 1.4853950427273143E-3
203 138 7.976422737846264E-2
203 137 1.3028262800338142E-2
203 136 1.2199680981261995E-3
203 135 1.4016009849696452E-2
203 134 1.4991169667009738E-2
203 133 2.474503439531872E-3
203 132 4.287197392504024E-3
203 131 1.2854773760031626E-3
203 130 1.3133401981641692E-3
203 129 1.8053845249642781E-3
203 128 1.7802366012872907E-3
203 127 1.2539518462872856E-3
203 126 1.2449289805971878E-3
203 125 1.27538022775082E-3
203 124 1.2752971159674254E-3
204 160 2.718284160106512E-2
204 159 1.9513259709121752E-1
204 158 1.1002687720474902E-1
204 157 1.1064396510822701E-1
204 156 9.719872242534669E-2
204 155 3.217737933880905E-1
204 154 1.5286779421827174E-1
204 153 2.6751805549669612E-2
204 152 2.6625779311147974E-2
204 151 1.3047601902447378E-1
204 150 2.5875062224626995E-2
204 149 2.6278909775343265E-2
205 172 2.7182252133065007E-2
205 171 1.9441792905259128E-1
205 170 1.10674362275941E-1
205 169 1.100521340620969E-1
205 168 9.724344504796832E-2
205 167 3.2197400937456955E-1
205 166 1.50803123321133E-1
205 165 2.647549680036197E-2
205 164 2.6337101361896924E-2
205 163 1.306824135216484E-1
205 162 2.559209890302432E-2
205 161 2.599406426754323E-2
206 181 2.7758840957862494E-2
206 180 1.9027183146515886E-1
206 179 1.0493705105238427E-1
206 178 1.003316322409204E-1
206 177 1.0065385614295314E-1
206 176 5.644268668895225E-1
206 175 2.3405889108151143E-1
206 174 1.9771088070071158E-1
206 173 1.979519501324851E-1
207 194 2.7879966757672424E-2
207 193 2.3198411382777143E-1
207 192 1.0513113459184999E-1
207 191 1.0069091570981556E-1
207 190 1.0092887418020535E-1
207 189 2.8034760517929935E-1
207 188 2.71029804401627E-2
207 187 2.6956658231433443E-2
207 186 1.013523244938309E-1
207 185 1.0186492873024293E-1
207 184 2.6189576408826246E-2
207 183 2.663843128030036E-2
207 182 2.663869214285797E-2
208 199 1.9853808471784481E-1
208 198 1.578338060800346E-2
208 197 3.3192634978307316E-2
208 196 2.6653691267298857E-2
208 195 2.6707529392412735E-2
