%%MatrixMarket matrix coordinate real general
%Complete acoustic radiance transfer reflection kernel, w.r.t. frequency band #3 (center freq. 500.00Hz). Includes energy losses due to surface materials and air absorption over propagation paths.
208 208 2354
1 24 1.1144097619531199E-1
1 23 1.1145727841009462E-1
1 22 1.53760434635247E-1
1 21 1.641599454870688E-1
1 20 1.1146108672148608E-1
1 19 3.4872787471749883E-1
1 18 2.535556324168986E-1
1 17 2.5298637985267625E-1
1 16 2.2269361023842493E-1
1 15 2.2300025496153666E-1
1 14 2.2279218104821374E-1
1 13 4.0304408130519126E-1
2 38 1.7560750762007227E-1
2 37 4.883954489158467E-1
2 36 8.307260073421954E-2
2 35 1.6038588184340638E-1
2 34 1.7318815736010773E-1
2 33 1.7968266204163585E-1
2 32 4.6077038920451285E-1
2 31 8.326543589495795E-2
2 30 2.898393691269082E-1
2 29 2.8942904135046565E-1
2 28 2.205924957206291E-1
2 27 2.1870957992567078E-1
2 26 5.584615447171253E-1
2 25 8.350310916263513E-2
3 43 3.153737312043921E-1
3 42 1.708398184100068E-1
3 41 2.1685890686779777E-1
3 40 5.533982508598143E-1
3 39 8.302673359368665E-2
4 48 1.441447650527006E-1
4 47 3.186238960109469E-1
4 46 2.034264020182076E-1
4 45 5.168823683540146E-1
4 44 7.96050262596221E-2
5 57 1.8824070128067383E-1
5 56 4.25794019084295E-1
5 55 7.926046770827647E-2
5 54 2.0709729693474327E-1
5 53 2.579673064305463E-1
5 52 1.9177795482553386E-1
5 51 2.4992784546065733E-1
5 50 4.954647869206515E-1
5 49 7.941674366113824E-2
6 66 7.379893136927405E-2
6 65 1.6850140640738429E-1
6 64 7.922005609831108E-2
6 63 2.0675304057228755E-1
6 62 1.87864438294719E-1
6 61 2.54648689374481E-1
6 60 2.4906887261391544E-1
6 59 4.954385095060641E-1
6 58 7.941669935342005E-2
7 94 1.067501562246552E-2
7 93 2.536795447148431E-2
7 92 1.070017025854284E-2
7 91 1.5142798009109717E-2
7 90 3.0597824409985232E-2
7 89 2.957660855424143E-2
7 88 3.6078950270852395E-2
7 87 1.0727891207835854E-2
7 86 1.0727798461048214E-2
7 85 4.5326971990924364E-2
7 84 1.0698753112475945E-2
7 83 1.0704409537633616E-2
7 82 1.069620112424405E-2
7 81 1.070756322439409E-2
8 123 1.5425608350148902E-3
8 122 4.190930014385125E-3
8 121 2.7208208647489674E-3
8 120 1.5484443018271101E-3
8 119 4.059394599966941E-3
8 118 2.7640685039258496E-3
8 117 1.0883340772675536E-2
8 116 1.0420269124763452E-2
8 115 5.509632310610819E-3
8 114 1.5503252015793216E-3
8 113 9.60178187219514E-3
8 112 2.4658650390986237E-2
8 111 1.5442085744738815E-3
9 138 3.514318604884143E-3
9 137 1.6581064753448248E-2
9 136 3.51563985873105E-3
9 135 1.0759641851367473E-2
9 134 3.5267057650188328E-3
9 133 1.095690895472945E-2
9 132 1.590904417541253E-2
9 131 3.5311298521668796E-3
9 130 3.5374743397020175E-3
9 129 2.0810959120607316E-2
9 128 3.5357009509848344E-3
9 127 3.5237790977145026E-3
9 126 3.521640347655301E-3
9 125 3.528795824039969E-3
9 124 3.5287765336466867E-3
10 148 1.5063967685988519E-2
10 147 2.7180586609180823E-2
10 146 4.286919783664543E-3
10 145 4.27977205486158E-3
10 144 2.5457817723529397E-2
10 143 4.284509498831409E-3
10 142 4.272188394281308E-3
10 141 4.268483444961899E-3
10 140 4.277080795497993E-3
10 139 4.27704027822291E-3
11 172 1.6526224444681723E-5
11 171 1.6526393154647066E-5
11 170 2.2141644510358067E-4
11 169 1.65281718174208E-5
11 168 1.651079126688914E-5
11 167 1.648969257142631E-5
11 166 1.6510155486757817E-5
11 165 1.648976760173383E-5
11 164 1.648251196802616E-5
11 163 1.6499212560966884E-5
11 162 1.6442769699358323E-5
11 161 1.6464357738615034E-5
12 194 9.781749885294122E-5
12 193 9.771699200841104E-5
12 192 5.041864409616326E-4
12 191 2.977855066524695E-4
12 190 9.78358445396906E-5
12 189 9.761749116057354E-5
12 188 9.758596005419408E-5
12 187 9.754159591594983E-5
12 186 9.775174200063274E-5
12 185 9.775358204088464E-5
12 184 9.730490480551681E-5
12 183 9.744425263689201E-5
12 182 9.74443329201901E-5
13 12 1.1143026002285746E-1
13 11 1.1144589888330417E-1
13 10 1.519787324211845E-1
13 9 1.6375729122635035E-1
13 8 1.1145091263031053E-1
13 7 3.478267476016113E-1
13 6 2.5360273367097996E-1
13 5 2.5309744724146754E-1
13 4 2.2274501495420349E-1
13 3 2.2232070172851426E-1
13 2 2.2302037831699376E-1
13 1 4.0308030537056083E-1
14 38 1.7242169104658142E-1
14 37 8.292938381339456E-2
14 36 4.657027766384912E-1
14 35 1.610722347890422E-1
14 34 1.7231334471727106E-1
14 33 1.7975647567108755E-1
14 32 8.312312104421427E-2
14 31 4.594392307206052E-1
14 30 2.8700479174940957E-1
14 29 2.883228034341388E-1
14 28 2.1959499272881883E-1
14 27 2.1808953556022426E-1
14 26 8.336011082330679E-2
14 25 5.592700483463219E-1
15 43 3.1417001896698243E-1
15 42 1.6928186943864199E-1
15 41 2.154029671782662E-1
15 40 8.267486811596159E-2
15 39 5.499093847867976E-1
16 48 1.4309745191710024E-1
16 47 3.189804317430262E-1
16 46 2.0326001701455454E-1
16 45 7.956599847260319E-2
16 44 5.144851784395937E-1
17 57 1.874863068075776E-1
17 56 7.930256303485306E-2
17 55 4.2653654494576615E-1
17 54 2.0702604690329263E-1
17 53 2.57783992424183E-1
17 52 1.9229401615766603E-1
17 51 2.4989792757756224E-1
17 50 7.945836683147955E-2
17 49 4.962083113484953E-1
18 66 7.370698796182737E-2
18 65 3.20245082693207E-2
18 64 4.25432156659136E-1
18 63 2.0643642832125988E-1
18 62 1.873717321287082E-1
18 61 2.5533294229599657E-1
18 60 2.4974832003864614E-1
18 59 7.945831254499483E-2
18 58 4.9525508991397993E-1
19 80 1.066968168969268E-2
19 79 2.5251837533466485E-2
19 78 5.415150607635178E-3
19 77 7.4989047573855465E-3
19 76 1.5633400075738373E-2
19 75 1.4924665581846899E-2
19 74 1.814835364708419E-2
19 73 5.428887858299759E-3
19 72 5.429036575352655E-3
19 71 2.2919725759188263E-2
19 70 5.414422967022535E-3
19 69 5.417184963919626E-3
19 68 5.413063540174644E-3
19 67 5.418824992741554E-3
20 123 1.5340382717600799E-3
20 122 3.8814546627112725E-3
20 121 1.5398793158488309E-3
20 120 2.6456413666235694E-3
20 119 4.014058009689932E-3
20 118 2.7131723338716467E-3
20 117 1.0639918004183744E-2
20 116 1.1110800351786668E-2
20 115 1.5417454706710932E-3
20 114 5.570003292820217E-3
20 113 1.030828240414865E-2
20 112 1.5356681463701404E-3
20 111 2.039624514297978E-2
21 138 3.5222589722242845E-3
21 137 1.63058721430748E-2
21 136 3.5235832113557014E-3
21 135 3.5346262446825567E-3
21 134 1.2643233313773646E-2
21 133 1.0855099443039447E-2
21 132 1.5935360341875964E-2
21 131 3.5391082033934813E-3
21 130 3.5454670258729644E-3
21 129 3.5436917597548084E-3
21 128 2.092615908130657E-2
21 127 3.531740840404104E-3
21 126 3.5295972579824936E-3
21 125 3.536768901686456E-3
21 124 3.536749567707823E-3
22 148 1.495939266639291E-2
22 147 2.739814506961852E-2
22 146 4.277498698797844E-3
22 145 4.270366678093715E-3
22 144 4.2751278921532E-3
22 143 2.5426220508619028E-2
22 142 4.2627996836312E-3
22 141 4.259102876438008E-3
22 140 4.2676813331358416E-3
22 139 4.26764090490294E-3
23 160 1.83939274673998E-5
23 159 1.839403713096952E-5
23 158 2.2890731811378446E-4
23 157 1.7613321802359674E-5
23 156 1.7594768250317893E-5
23 155 1.757252238209035E-5
23 154 1.75942040363126E-5
23 153 1.7571692548697282E-5
23 152 1.7564726110519584E-5
23 151 1.7582452153785267E-5
23 150 1.7522514602911047E-5
23 149 1.7545375970232715E-5
24 194 1.0287973784860027E-4
24 193 1.0277402958639249E-4
24 192 5.216262823949295E-4
24 191 1.0289900553506938E-4
24 190 3.339226477613918E-4
24 189 1.0266937938309272E-4
24 188 1.0263621648283014E-4
24 187 1.0258955641723892E-4
24 186 1.028105779558758E-4
24 185 1.0281251322166122E-4
24 184 1.0234061609799142E-4
24 183 1.024871754409491E-4
24 182 1.0248725987905841E-4
25 12 7.769732388413776E-1
25 11 7.277963419118616E-1
25 10 3.786687753192159E-1
25 9 4.651935454513201E-1
25 8 7.554732894800451E-1
25 7 4.416557813758316E-1
25 6 2.4434015949588261E-1
25 5 2.4412559276181844E-1
25 4 4.5906953066332673E-1
25 3 4.6211607375061226E-1
25 2 6.260886120542147E-2
25 1 1.8508157382156987E-1
26 24 7.679118383264186E-1
26 23 7.564852934778487E-1
26 22 3.735035171806405E-1
26 21 4.625787561979538E-1
26 20 7.56446057071514E-1
26 19 4.400156595945998E-1
26 18 2.429891125067626E-1
26 17 2.457950975222841E-1
26 16 4.6208690216167203E-1
26 15 4.6193671799789426E-1
26 14 6.255515638730944E-2
26 13 1.8464273253119132E-1
27 43 1.8806884995119638E-1
27 42 6.778119433518116E-2
27 41 3.058860159004198E-1
27 40 1.2479250123475809E-1
27 39 1.2553558324370026E-1
28 48 6.395177152766424E-2
28 47 1.928912085651924E-1
28 46 2.59688081662284E-1
28 45 1.1650340192273993E-1
28 44 1.1687590332445875E-1
29 57 4.883977979148222E-1
29 56 3.896964229033722E-1
29 55 3.8112602359821596E-1
29 54 1.8586597583583242E-1
29 53 3.871553152302773E-1
29 52 4.6072569890825904E-1
29 51 6.104196107006459E-2
29 50 1.933313296047702E-1
29 49 1.929177042070521E-1
30 66 1.9663054655041573E-1
30 65 1.5695231708283477E-1
30 64 3.85117218739237E-1
30 63 1.8574027759012326E-1
30 62 4.5701670132118793E-1
30 61 3.902366386771908E-1
30 60 6.089051873376321E-2
30 59 1.9200801330433834E-1
30 58 1.922402607146221E-1
31 80 3.373310207908577E-3
31 79 4.033096300441386E-2
31 78 1.7120457154541622E-3
31 77 2.3287965089163667E-3
31 76 9.589270894075453E-3
31 75 1.105081153508887E-2
31 74 3.2012194967009244E-2
31 73 1.7163888635670244E-3
31 72 1.7164358817225063E-3
31 71 2.646839469443933E-3
31 70 1.7118156657134388E-3
31 69 1.7126888944186745E-3
31 68 1.7113858714050175E-3
31 67 1.7132074034170845E-3
32 94 3.3717902580515614E-3
32 93 4.042943992868451E-2
32 92 3.379735553859077E-3
32 91 4.714808594531305E-3
32 90 1.8739801670834083E-2
32 89 2.1848936083947917E-2
32 88 6.327109944388505E-2
32 87 3.3884914405084066E-3
32 86 3.38846214568336E-3
32 85 5.235978905549132E-3
32 84 3.3792879367808846E-3
32 83 3.381074564540182E-3
32 82 3.3784818706013783E-3
32 81 3.3820706820796758E-3
33 123 5.21735648479125E-3
33 122 1.7706192654197622E-2
33 121 6.200911969268598E-3
33 120 6.258728388128435E-3
33 119 1.781359435311132E-2
33 118 1.0483710233686893E-2
33 117 6.426598917938574E-2
33 116 6.382061580683594E-2
33 115 8.800089054394559E-3
33 114 8.666171558118083E-3
33 113 7.740196379420886E-2
33 112 3.149894269217651E-2
33 111 3.3733339233280396E-2
34 138 3.4406903766726477E-3
34 137 4.0772972639542306E-2
34 136 3.441983949028289E-3
34 135 7.430938467857888E-3
34 134 7.294414492987219E-3
34 133 6.5786359317233515E-3
34 132 4.370950701288275E-2
34 131 3.457149412761518E-3
34 130 3.463360977409279E-3
34 129 7.946920165297956E-3
34 128 7.916850738902017E-3
34 127 3.449952663420002E-3
34 126 3.4478587221545244E-3
34 125 3.4548642846846315E-3
34 124 3.454845398442947E-3
35 148 9.203315486226223E-3
35 147 7.37258264112566E-2
35 146 3.264457552214053E-3
35 145 3.25901460985695E-3
35 144 7.941992526116557E-3
35 143 7.91150616488567E-3
35 142 3.2532397086915414E-3
35 141 3.250418417322292E-3
35 140 3.2569652358546866E-3
35 139 3.2569343822508607E-3
36 160 1.0973292089573136E-5
36 159 1.0973357511728587E-5
36 158 3.31004500252745E-4
36 157 1.0507605031469733E-5
36 156 1.0496536511915418E-5
36 155 1.0483265261918396E-5
36 154 1.0496199917944821E-5
36 153 1.0482770207002908E-5
36 152 1.0478614228836564E-5
36 151 1.0489189080275524E-5
36 150 1.0453432048285365E-5
36 149 1.0467070487473097E-5
37 172 1.0289218120344904E-5
37 171 1.0289323159075213E-5
37 170 2.895935042542211E-4
37 169 1.0290430553525939E-5
37 168 1.0279609432460415E-5
37 167 1.0266473396434857E-5
37 166 1.0279213596105312E-5
37 165 1.0266520110262464E-5
37 164 1.0262002756763518E-5
37 163 1.027240053661223E-5
37 162 1.023725924246057E-5
37 161 1.0250699943659224E-5
38 194 3.3307865223299596E-4
38 193 3.327364160819098E-4
38 192 2.574975143158906E-3
38 191 4.985892354306246E-4
38 190 5.337762349194156E-4
38 189 3.323976054531124E-4
38 188 3.3229023879030215E-4
38 187 3.321391743330511E-4
38 186 3.328547433823421E-4
38 185 3.3286100890880056E-4
38 184 3.3133321673872447E-4
38 183 3.3180771044803335E-4
38 182 3.318079838209271E-4
39 12 2.886381128701476E-2
39 11 2.8867862225391692E-2
39 10 2.893579311227052E-2
39 9 2.892965138445545E-2
39 8 2.8869160937675074E-2
39 7 2.892805895618866E-2
39 6 1.387857299733486E-1
39 5 8.871680076357569E-2
39 4 2.898009937225681E-2
39 3 2.8979815444956713E-2
39 2 2.1369583705014378E-1
39 1 8.534797408800897E-2
40 24 2.9012381468638312E-2
40 23 2.9016625563496462E-2
40 22 2.908503329311177E-2
40 21 2.907874338201419E-2
40 20 2.9017617013738665E-2
40 19 2.9077000927230236E-2
40 18 1.3959828409988226E-1
40 17 8.854489080998625E-2
40 16 2.912913310272861E-2
40 15 2.9128973129607588E-2
40 14 2.1420759133890047E-1
40 13 8.589477902350937E-2
41 38 3.1667807180520986E-2
41 37 3.167604668100531E-2
41 36 3.167646918192555E-2
41 35 3.1728666663899945E-2
41 34 2.291108693365476E-1
41 33 1.891438552206494E-1
41 32 1.1619849728483365E-1
41 31 1.1630661360208536E-1
41 30 7.03765314852566E-2
41 29 8.144165894990155E-2
41 28 1.2761497095478358E-1
41 27 1.658788902190804E-1
41 26 5.8717588046161354E-2
41 25 5.862660852760679E-2
42 57 6.736363478654521E-3
42 56 6.7402255408602185E-3
42 55 6.7401747313270465E-3
42 54 3.7610644330389964E-2
42 53 6.756488446371149E-3
42 52 6.736165334063031E-3
42 51 3.112314645983771E-2
42 50 1.2031967642864249E-2
42 49 1.2027482090200483E-2
43 66 2.1076614041468208E-2
43 65 2.1087977829195546E-2
43 64 5.2193320979526295E-2
43 63 1.4038720434986635E-1
43 62 5.216724060392968E-2
43 61 5.233897067895667E-2
43 60 3.550624924278851E-1
43 59 1.7690261971882837E-1
43 58 1.769983568036448E-1
44 12 2.0473319442403312E-2
44 11 2.0476192803603178E-2
44 10 2.0524376694955798E-2
44 9 2.052002032100934E-2
44 8 2.047711399003892E-2
44 7 2.0518890799607233E-2
44 6 5.9331317694194155E-2
44 5 1.0363500445438369E-1
44 4 2.0555803459944576E-2
44 3 2.0555602068165247E-2
44 2 1.5034965540492848E-1
44 1 6.054279500400082E-2
45 24 2.0323873442102163E-2
45 23 2.0326846532982914E-2
45 22 2.037476779862138E-2
45 21 2.037036156408846E-2
45 20 2.0327541067806553E-2
45 19 2.0369140932457584E-2
45 18 5.9112246016283974E-2
45 17 1.0099669767943414E-1
45 16 2.040566077962131E-2
45 15 2.0405548714589033E-2
45 14 1.5002741119634688E-1
45 13 6.00879282080389E-2
46 38 3.706479683900048E-1
46 37 3.459472908028408E-1
46 36 2.897066999481848E-1
46 35 1.4906484914394189E-1
46 34 2.2010591731431765E-2
46 33 1.7669060099567055E-1
46 32 8.881875055838187E-2
46 31 8.768916740027793E-2
46 30 5.6965299234211654E-2
46 29 4.558691584091539E-2
46 28 1.2787096479511723E-1
46 27 8.881079914265519E-2
46 26 4.1154564126243236E-2
46 25 4.116001801873986E-2
47 57 4.638920645514548E-2
47 56 4.6415802110437894E-2
47 55 4.641545221632489E-2
47 54 1.1853892363332998E-1
47 53 4.652779477290298E-2
47 52 4.63878419547898E-2
47 51 3.2545934082125816E-1
47 50 1.6494135357953338E-1
47 49 1.6461277271787356E-1
48 66 1.5763117779362676E-3
48 65 1.5771616712066633E-3
48 64 3.903518204003902E-3
48 63 2.3445223311135573E-2
48 62 3.9015676628427337E-3
48 61 3.914411288453485E-3
48 60 1.759692960545203E-2
48 59 6.7637423841125175E-3
48 58 6.7791084057242336E-3
49 12 2.9645889448576657E-2
49 11 2.9650050148980745E-2
49 10 3.628979682041381E-1
49 9 2.97135135135555E-2
49 8 2.9651384050467137E-2
49 7 7.37960017691794E-2
49 6 2.171057101158719E-1
49 5 2.9761467519050747E-2
49 4 1.5596272076501722E-1
49 3 9.32632008905118E-2
49 2 1.202509206189407E-1
49 1 1.0730908827281294E-1
50 24 2.964435052984246E-2
50 23 2.964868707270065E-2
50 22 3.6749612197253845E-1
50 21 2.9712157987292036E-2
50 20 2.964970011944225E-2
50 19 7.424882871085638E-2
50 18 2.1734802239093537E-1
50 17 2.9759963534293377E-2
50 16 1.5297963994587205E-1
50 15 9.280873630034343E-2
50 14 1.2099926256523971E-1
50 13 1.073324856053666E-1
51 38 1.5940474977723254E-1
51 37 1.5203339718289224E-1
51 36 1.452774561183181E-1
51 35 4.384344794252592E-1
51 34 3.0434944071268073E-2
51 33 3.10685677662667E-2
51 32 9.436665247112222E-2
51 31 9.386193313432514E-2
51 30 2.176546074968481E-1
51 29 3.054373246166397E-2
51 28 9.632602461003069E-2
51 27 1.2760175272688198E-1
51 26 1.1052345640079388E-1
51 25 1.1023265272564008E-1
52 43 1.1520049506505786E-1
52 42 7.172154321244883E-3
52 41 7.17969395666554E-3
52 40 1.923028295325128E-2
52 39 1.9730554620844533E-2
53 48 6.309661157551729E-1
53 47 6.759039726524316E-2
53 46 3.142669055997657E-1
53 45 2.6182438133630476E-1
53 44 2.623765516649802E-1
54 66 2.8956982697139946E-2
54 65 1.647741035794099E-2
54 64 3.743509576014781E-2
54 63 1.997044860444934E-1
54 62 9.214350680102562E-2
54 61 2.8026489523009224E-2
54 60 3.1828278550581755E-2
54 59 2.846238207035594E-2
54 58 2.8482628373873428E-2
55 80 5.34826828355548E-4
55 79 5.36962759452653E-4
55 78 2.7143900903313253E-4
55 77 2.7163163287198896E-4
55 76 6.106502294227694E-3
55 75 2.721710103775464E-4
55 74 2.721437128100013E-4
55 73 2.7212760035356156E-4
55 72 2.721350549217517E-4
55 71 2.7186321447211965E-4
55 70 2.714025354313551E-4
55 69 2.715409828643114E-4
55 68 2.713343930096237E-4
55 67 2.716231906975676E-4
56 94 5.436503933806508E-4
56 93 5.458133275681582E-4
56 92 5.449314526579789E-4
56 91 5.453259332348782E-4
56 90 1.2132826086605318E-2
56 89 5.464084044244131E-4
56 88 5.463482168850367E-4
56 87 5.463432074994723E-4
56 86 5.463384841501706E-4
56 85 5.457901477848286E-4
56 84 5.448592811461056E-4
56 83 5.451473479621976E-4
56 82 5.447293151155873E-4
56 81 5.453079569119702E-4
57 148 2.7747218573978355E-2
57 147 6.679518192626443E-3
57 146 3.957967703882986E-3
57 145 3.951368448196877E-3
57 144 7.452676377724175E-3
57 143 7.479876129056514E-3
57 142 3.944366711479455E-3
57 141 3.940946057375634E-3
57 140 3.948883699663806E-3
57 139 3.948846291437313E-3
58 12 2.964220978307137E-2
58 11 2.964636996704684E-2
58 10 2.9716132812278518E-2
58 9 2.674172439746946E-1
58 8 2.9647703702968584E-2
58 7 6.0875138956326784E-2
58 6 2.9757756905645975E-2
58 5 2.152773422974828E-1
58 4 8.871810003690658E-2
58 3 1.4837658391401753E-1
58 2 1.2096569803318351E-1
58 1 1.0749833825612654E-1
59 24 2.9641391614883883E-2
59 23 2.9645727724895293E-2
59 22 2.971561858529241E-2
59 21 2.687554508667218E-1
59 20 2.964674067052086E-2
59 19 6.0893656406459766E-2
59 18 2.975697274938713E-2
59 17 2.1534138157185093E-1
59 16 8.941002813898576E-2
59 15 1.48954107422971E-1
59 14 1.2032104379638052E-1
59 13 1.0754797448939014E-1
60 38 3.025336003116485E-2
60 37 3.026123151317837E-2
60 36 3.0261635143034413E-2
60 35 3.031150121699052E-2
60 34 3.4131440624777354E-1
60 33 3.0260783729152634E-2
60 32 8.266611438937968E-2
60 31 8.232415272849286E-2
60 30 3.04125899997077E-2
60 29 2.1571195552755595E-1
60 28 1.2764419249014117E-1
60 27 1.0515989148475634E-1
60 26 1.0969352679894874E-1
60 25 1.1004363370522983E-1
61 43 5.5724544386328E-2
61 42 5.673567255949015E-1
61 41 2.4090885822332833E-1
61 40 2.0866509866518393E-1
61 39 2.095374539644716E-1
62 48 5.6646467081125675E-3
62 47 9.043150977797672E-2
62 46 5.672761315483509E-3
62 45 1.3345869191187526E-2
62 44 1.3527430975067384E-2
63 57 6.122418889725942E-2
63 56 2.7570485427867455E-2
63 55 3.425745729057323E-2
63 54 1.996481053896613E-1
63 53 2.658343894310433E-2
63 52 8.098277277692793E-2
63 51 3.186897612256321E-2
63 50 2.8416383258900817E-2
63 49 2.8457666752752287E-2
64 80 2.958217931979471E-4
64 79 2.970032129282094E-4
64 78 1.5013752141594878E-4
64 77 1.502440649294789E-4
64 76 1.5054191557852542E-4
64 75 2.9210758455664792E-3
64 74 1.5052730503168035E-4
64 73 1.5051839295864266E-4
64 72 1.5052251620679068E-4
64 71 1.503721566417682E-4
64 70 1.5011734724795615E-4
64 69 1.5019392487216907E-4
64 68 1.500796565183205E-4
64 67 1.5023939541956765E-4
65 94 2.918495551136258E-4
65 93 2.930106898944519E-4
65 92 2.925372702053734E-4
65 91 2.927490404574891E-4
65 90 2.933313646555077E-4
65 89 5.745033641215805E-3
65 88 2.9329783621323834E-4
65 87 2.932951470089884E-4
65 86 2.932926113584874E-4
65 85 2.9299824621826826E-4
65 84 2.9249852614505713E-4
65 83 2.926531699623763E-4
65 82 2.924287560710381E-4
65 81 2.92739390171373E-4
66 138 1.9577245748760206E-3
66 137 6.005443935029527E-3
66 136 1.9584606069256313E-3
66 135 2.6765479975647557E-3
66 134 2.392408001755443E-3
66 133 1.5191701475173666E-2
66 132 1.969420092322086E-3
66 131 1.967089631275287E-3
66 130 1.970623960560421E-3
66 129 3.527219009733484E-3
66 128 3.5542387367063937E-3
66 127 1.9629947399881684E-3
66 126 1.961803304600211E-3
66 125 1.9657894121613583E-3
66 124 1.9657786660449033E-3
67 24 7.561542367175476E-3
67 23 7.56264851225753E-3
67 22 7.580477725839587E-3
67 21 7.578838376470713E-3
67 20 7.562906915485113E-3
67 19 7.5783842377545926E-3
67 18 1.246260309229854E-2
67 17 1.4524173267014134E-2
67 16 7.591971528206778E-3
67 15 7.5919298341619946E-3
67 14 3.679276171653152E-2
67 13 2.7810271496708307E-2
68 38 4.703538841981861E-3
68 37 3.1816220102743155E-3
68 36 3.18166444733222E-3
68 35 3.186907294054953E-3
68 34 3.621782993898549E-3
68 33 2.923300662273168E-2
68 32 3.1246204559006764E-2
68 31 3.1890499964747103E-3
68 30 5.854243898003148E-3
68 29 6.43306494010311E-3
68 28 1.2833046964193975E-2
68 27 1.1508432424709919E-2
68 26 1.0703340577456486E-2
68 25 3.198152836390233E-3
69 57 1.0076709951556484E-3
69 56 1.0082487086472821E-3
69 55 1.0082411082122675E-3
69 54 2.0605843044081635E-3
69 53 1.0106814244934875E-3
69 52 1.0076413553420718E-3
69 51 4.5112296955401344E-3
69 50 3.974793867715268E-3
69 49 1.0102290328922E-3
70 66 2.236755713484236E-4
70 65 2.2379616954828593E-4
70 64 5.539016308643267E-4
70 63 1.5289659921636342E-3
70 62 5.536248528723268E-4
70 61 5.554473383329322E-4
70 60 2.29524672398522E-3
70 59 1.9732052988750562E-3
70 58 5.552765480894313E-4
71 94 6.72379213144978E-2
71 93 1.206140588029349E-1
71 92 6.739636093660967E-2
71 91 1.7202386830832825E-1
71 90 1.295606461274303E-1
71 89 1.2935445161350806E-1
71 88 1.5282810772323852E-1
71 87 1.574113976707104E-1
71 86 1.5751006070918613E-1
71 85 2.7286643513612724E-1
71 84 6.738743486482608E-2
71 83 6.74230625662856E-2
71 82 7.673855382263672E-2
71 81 2.331088650663551E-1
72 102 7.990882878037071E-2
72 101 1.4627412281309368E-1
72 100 5.040723790522812E-2
72 99 7.935315469368574E-2
72 98 2.207193243708632E-1
72 97 1.267894394944284E-1
72 96 2.793705579897385E-1
72 95 5.0551557929043055E-2
73 110 1.8823358017144E-1
73 109 5.015366475293677E-1
73 108 5.0440682635751764E-2
73 107 2.2033849909175368E-1
73 106 8.280770793081348E-2
73 105 1.2778381639110295E-1
73 104 2.780838455502158E-1
73 103 5.056365842418357E-2
74 123 9.551569326541634E-2
74 122 1.472997982940999E-1
74 121 3.53477237299401E-1
74 120 5.5078801690031334E-2
74 119 1.5056633677443534E-1
74 118 1.7567601842633299E-1
74 117 1.5657229379097776E-1
74 116 1.545035212152894E-1
74 115 3.5215709418554786E-1
74 114 5.5145706069044925E-2
74 113 1.3081065672651257E-1
74 112 3.312979932124404E-1
74 111 5.4928135123189864E-2
75 138 1.0558667237036654E-1
75 137 1.4726923132872802E-1
75 136 6.922592237611745E-2
75 135 3.3094246672249794E-1
75 134 5.678129421471603E-2
75 133 1.5770916698872195E-1
75 132 2.072429726355202E-1
75 131 1.5898258310059907E-1
75 130 2.2665103361516972E-1
75 129 3.9514719072657906E-1
75 128 5.692612010462094E-2
75 127 1.456647391516091E-1
75 126 1.2936730105021255E-1
75 125 3.9535511649618993E-1
75 124 5.6814634371378674E-2
76 148 1.883753605563198E-1
76 147 1.9383407415474238E-1
76 146 2.343821707092502E-1
76 145 1.775314324348304E-1
76 144 4.1445439743170015E-1
76 143 5.859703675729269E-2
76 142 1.5473974337364121E-1
76 141 1.4146369332476627E-1
76 140 4.201686735622764E-1
76 139 5.8494884061712514E-2
77 172 1.4873055355967996E-2
77 171 4.511723387556115E-3
77 170 1.29655166084141E-2
77 169 8.180293891037216E-3
77 168 1.9634402468386453E-2
77 167 4.501704088238678E-3
77 166 4.507290486481466E-3
77 165 4.501724571594608E-3
77 164 4.499743775665084E-3
77 163 4.504303055784566E-3
77 162 4.488894092897323E-3
77 161 4.494787651200974E-3
78 181 2.6810680112500426E-3
78 180 4.932285559165096E-4
78 179 1.475794903336887E-3
78 178 2.341170761207599E-3
78 177 4.931728740225278E-4
78 176 4.90486623953818E-4
78 175 4.918583518732328E-4
78 174 4.919523955209195E-4
78 173 4.919587728360388E-4
79 194 2.003866822171758E-2
79 193 4.632602567320129E-3
79 192 1.3653080906139307E-2
79 191 4.329163401506342E-2
79 190 4.638237171192204E-3
79 189 4.6278853950692395E-3
79 188 4.62639055695192E-3
79 187 4.624287325809586E-3
79 186 4.634250007543901E-3
79 185 4.634337240838947E-3
79 184 4.6130661878752595E-3
79 183 4.619672440361253E-3
79 182 4.61967624646094E-3
80 208 4.475371200734633E-3
80 207 8.91701823950955E-4
80 206 1.246891108369052E-3
80 205 2.0606486233459265E-3
80 204 5.921816904423307E-4
80 203 8.567312043891684E-3
80 202 5.893620757092111E-4
80 201 7.077144753044128E-3
80 200 5.894004616917613E-4
81 12 7.566790807494839E-3
81 11 7.567852781014811E-3
81 10 7.585661198803731E-3
81 9 7.584051114497432E-3
81 8 7.56819324485965E-3
81 7 7.583633651555656E-3
81 6 1.2479192972387554E-2
81 5 1.4367220611333574E-2
81 4 7.597276303872325E-3
81 3 7.597201870927104E-3
81 2 3.697985689292079E-2
81 1 2.7766740931914023E-2
82 38 7.747466402221459E-3
82 37 3.1796604807205826E-3
82 36 3.1797028916152464E-3
82 35 3.184942506024788E-3
82 34 4.055516119826735E-3
82 33 2.9233324641425387E-2
82 32 3.1870887116823353E-3
82 31 3.076078524560466E-2
82 30 5.908356628459035E-3
82 29 6.343922714243595E-3
82 28 1.289856537063699E-2
82 27 1.1398584086900638E-2
82 26 3.196175322486182E-3
82 25 1.0639577859826702E-2
83 57 1.002595288150475E-3
83 56 1.00317009166015E-3
83 55 1.003162529509041E-3
83 54 2.1980706064442775E-3
83 53 1.0055905537519835E-3
83 52 1.0025657976346458E-3
83 51 4.511993639594539E-3
83 50 1.0051409952849687E-3
83 49 3.919916889101111E-3
84 66 2.235777490231327E-4
84 65 2.2369829448055088E-4
84 64 5.536593873989946E-4
84 63 1.599049432268631E-3
84 62 5.533827304531447E-4
84 61 5.55204418867544E-4
84 60 2.2780031380420407E-3
84 59 5.550339399167592E-4
84 58 1.988417745667903E-3
85 80 6.724761514224442E-2
85 79 1.22736541859429E-1
85 78 3.4129974500676064E-2
85 77 8.621753197295015E-2
85 76 6.557769951268637E-2
85 75 6.55258317227576E-2
85 74 7.74119231725975E-2
85 73 7.91990519465128E-2
85 72 8.048034384412707E-2
85 71 1.3814897624968517E-1
85 70 3.412538841298348E-2
85 69 3.414279640225265E-2
85 68 3.879408910932267E-2
85 67 1.1779369348669837E-1
86 102 8.120944062083377E-2
86 101 5.0699357836828565E-2
86 100 1.731593412068909E-1
86 99 8.170601927496557E-2
86 98 2.2262453774188487E-1
86 97 1.2774819126854425E-1
86 96 5.084502687678244E-2
86 95 2.810086755360496E-1
87 110 1.9863785519261415E-1
87 109 5.070667957662159E-2
87 108 5.230464102735459E-1
87 107 2.2331860626066957E-1
87 106 7.986297508726745E-2
87 105 1.2778248951699633E-1
87 104 5.083043364025515E-2
87 103 2.797161664813274E-1
88 123 9.57442948501214E-2
88 122 1.4676550169526284E-1
88 121 5.510348556710091E-2
88 120 3.520823400458305E-1
88 119 1.507579577313716E-1
88 118 1.7565519413035469E-1
88 117 1.5822190262743344E-1
88 116 1.5662349064253295E-1
88 115 5.517026458949321E-2
88 114 3.5133525124413406E-1
88 113 1.2794325512259083E-1
88 112 5.4952791863898766E-2
88 111 3.357114319787542E-1
89 138 1.0343841552554894E-1
89 137 1.4766641329608746E-1
89 136 7.347141030934198E-2
89 135 5.681921202937404E-2
89 134 3.363484036749648E-1
89 133 1.5846405074482697E-1
89 132 2.0616920579816364E-1
89 131 1.6097300191609132E-1
89 130 2.278757385782913E-1
89 129 5.6964940428188664E-2
89 128 3.951570782589616E-1
89 127 1.4423168871004513E-1
89 126 1.3055258015089358E-1
89 125 5.6853655298388386E-2
89 124 3.959326535052488E-1
90 148 1.904004627766365E-1
90 147 1.9840287138639667E-1
90 146 2.3440760534950159E-1
90 145 1.782637639726628E-1
90 144 5.890563393068082E-2
90 143 4.163522443004736E-1
90 142 1.574103142458733E-1
90 141 1.442847874149398E-1
90 140 5.8803030151195104E-2
90 139 4.196509884522712E-1
91 160 1.4944330447509414E-2
91 159 4.583415282759593E-3
91 158 1.2873978888896456E-2
91 157 7.905514488858517E-3
91 156 1.8880322142995978E-2
91 155 4.378710723982468E-3
91 154 4.384113345745714E-3
91 153 4.378503946588855E-3
91 152 4.3767680536479685E-3
91 151 4.381185018614838E-3
91 150 4.366249815171895E-3
91 149 4.371946397146848E-3
92 181 2.736407729756231E-3
92 180 4.980698722262538E-4
92 179 1.4181367875376381E-3
92 178 4.98012741178838E-4
92 177 2.3005354252596103E-3
92 176 4.953010266557185E-4
92 175 4.966862188579067E-4
92 174 4.967811855970081E-4
92 173 4.9678762550907E-4
93 194 1.994263299819235E-2
93 193 4.622929676173785E-3
93 192 1.3262365088631226E-2
93 191 4.628551281401015E-3
93 190 4.364388440790739E-2
93 189 4.618222353395851E-3
93 188 4.616730636506001E-3
93 187 4.614631796918005E-3
93 186 4.624573676536329E-3
93 185 4.624660727687935E-3
93 184 4.603434088760828E-3
93 183 4.610026547367407E-3
93 182 4.610030345519945E-3
94 208 5.054104882546228E-3
94 207 8.98402198876068E-4
94 206 1.2638781915956011E-3
94 205 5.972229389287679E-4
94 204 2.067438340835617E-3
94 203 7.1555750285728185E-3
94 202 1.1962382055984912E-3
94 201 5.944155599528414E-4
94 200 1.0463712667739296E-2
95 80 6.358930236449827E-3
95 79 4.3939297188435276E-2
95 78 3.2273282310836026E-3
95 77 5.189234577410278E-3
95 76 1.4771525750146439E-2
95 75 9.002464075270961E-3
95 74 2.4039069056377215E-2
95 73 3.235515374913871E-3
95 72 3.2356040074890354E-3
95 71 1.2223381970742126E-2
95 70 3.226894570921325E-3
95 69 3.2285406692860834E-3
95 68 3.2260843780084806E-3
95 67 3.2295180957143226E-3
96 94 6.333822218789646E-3
96 93 4.355125044141685E-2
96 92 6.348747254829574E-3
96 91 1.0411402761735336E-2
96 90 2.870641457303226E-2
96 89 1.8093935083369116E-2
96 88 4.776576625338251E-2
96 87 6.36519496514379E-3
96 86 6.365139935560223E-3
96 85 2.3823683708015374E-2
96 84 6.347906417535915E-3
96 83 6.3512625523285595E-3
96 82 6.346392242724662E-3
96 81 6.353133733784495E-3
97 123 3.9213760565615305E-3
97 122 1.7194138768086925E-2
97 121 5.42162380717792E-3
97 120 5.569350045885333E-3
97 119 1.8242926489910355E-2
97 118 4.964006152750791E-3
97 117 4.092231647450425E-2
97 116 4.257772311734703E-2
97 115 7.599563383674411E-3
97 114 7.567756972886507E-3
97 113 4.811094848319393E-2
97 112 2.948655189893384E-2
97 111 2.757520139404541E-2
98 138 1.146185306375327E-2
98 137 5.729644375881832E-2
98 136 1.1466162296681702E-2
98 135 2.032013197455325E-2
98 134 2.019051542131793E-2
98 133 3.9581175154732466E-2
98 132 9.717595524949912E-2
98 131 1.1516682482436412E-2
98 130 1.1537374853296442E-2
98 129 6.06185242239746E-2
98 128 6.015408358659972E-2
98 127 1.149270819981907E-2
98 126 1.1485732725573624E-2
98 125 1.1509070114166745E-2
98 124 1.1509007199081859E-2
99 148 2.051078312537761E-2
99 147 2.874926785045452E-2
99 146 4.395404976890659E-3
99 145 4.388076366993706E-3
99 144 9.863756897014504E-3
99 143 9.798041128129212E-3
99 142 4.380300793589091E-3
99 141 4.3765020864754865E-3
99 140 4.385317002368808E-3
99 139 4.385275459759771E-3
100 160 1.973654133813379E-5
100 159 1.9736659006292528E-5
100 158 4.067561921562693E-4
100 157 1.8898957521183803E-5
100 156 1.8879049703916892E-5
100 155 1.8855180060054606E-5
100 154 1.8878444306670504E-5
100 153 1.8854289655267747E-5
100 152 1.8846814721199568E-5
100 151 1.886583462797558E-5
100 150 1.8801522101320678E-5
100 149 1.8826052170931423E-5
101 172 1.7578178861802234E-5
101 171 1.757835831077175E-5
101 170 4.0904221505962834E-4
101 169 1.7580250191913517E-5
101 168 1.7561763305995637E-5
101 167 1.7539321601670624E-5
101 166 1.75610870561418E-5
101 165 1.7539401407930674E-5
101 164 1.753168392669374E-5
101 163 1.754944757324186E-5
101 162 1.748941191778115E-5
101 161 1.751237411441598E-5
102 194 3.626404645043515E-4
102 193 3.622678537832259E-4
102 192 2.5696071675752096E-3
102 191 6.506465719342116E-4
102 190 6.560742573032559E-4
102 189 3.6189897261061887E-4
102 188 3.6178207680774235E-4
102 187 3.6161760488923197E-4
102 186 3.6239668301591517E-4
102 185 3.62403504628198E-4
102 184 3.607401159405468E-4
102 183 3.612567225077782E-4
102 182 3.612570201434042E-4
103 80 6.072620565992954E-3
103 79 1.278289613774857E-2
103 78 3.0820183679558097E-3
103 77 3.4614085640296785E-3
103 76 9.385723416936472E-3
103 75 1.4138905973749215E-2
103 74 2.3514321562235235E-2
103 73 3.089836887133052E-3
103 72 3.089921529042736E-3
103 71 1.1517562745610058E-2
103 70 3.0816042332629957E-3
103 69 3.0831762163500533E-3
103 68 3.080830519137818E-3
103 67 3.0841096343321925E-3
104 94 6.429289182873293E-3
104 93 1.3031900855719945E-2
104 92 6.444439177529102E-3
104 91 7.260267996542067E-3
104 90 2.109495316722213E-2
104 89 2.876532071976113E-2
104 88 4.7596908185031095E-2
104 87 6.461134797070256E-3
104 86 6.461078938049565E-3
104 85 2.410457108873505E-2
104 84 6.443585666658424E-3
104 83 6.446992387019883E-3
104 82 6.442048669344844E-3
104 81 6.44889177198496E-3
105 123 3.9217833881591115E-3
105 122 5.865058168597963E-3
105 121 4.0918559577062304E-3
105 120 4.153007635213413E-3
105 119 6.389276462456429E-3
105 118 1.0019405890849532E-2
105 117 4.1492523459345156E-2
105 116 4.009941062752136E-2
105 115 7.567529583546712E-3
105 114 7.611903686295529E-3
105 113 4.931188973429634E-2
105 112 2.538387428841113E-2
105 111 2.88254039275317E-2
106 138 3.7242486442710526E-3
106 137 2.7470679489789523E-2
106 136 3.725648824050212E-3
106 135 8.15273284118896E-3
106 134 8.30175869146466E-3
106 133 1.3089525684112003E-2
106 132 2.0944491520566315E-2
106 131 3.742064122018069E-3
106 130 3.74878760151947E-3
106 129 8.280422599331714E-3
106 128 8.191048886860659E-3
106 127 3.734274265610176E-3
106 126 3.732007755966643E-3
106 125 3.7395906692482325E-3
106 124 3.739570226531135E-3
107 148 5.785793094174629E-2
107 147 2.0709910209620666E-1
107 146 1.5148781787912135E-2
107 145 1.5123523702998146E-2
107 144 7.735928967112252E-2
107 143 7.783230365694357E-2
107 142 1.5096725156470193E-2
107 141 1.508363289638432E-2
107 140 1.5114013541182424E-2
107 139 1.5113870364405197E-2
108 160 4.2597823421122555E-6
108 159 4.259807738697008E-6
108 158 5.608609294171249E-5
108 157 4.079004733089707E-6
108 156 4.074707983876625E-6
108 155 4.069556144671616E-6
108 154 4.07457731962011E-6
108 153 4.0693639665932275E-6
108 152 4.06775063467217E-6
108 151 4.071855744156401E-6
108 150 4.057975026115299E-6
108 149 4.063269406502847E-6
109 172 4.947973148683074E-6
109 171 4.9480236606666934E-6
109 170 1.0203598680126697E-4
109 169 4.948556194620498E-6
109 168 4.943352435127346E-6
109 167 4.937035458193395E-6
109 166 4.943162081726979E-6
109 165 4.937057922365306E-6
109 164 4.934885576171993E-6
109 163 4.939885755475765E-6
109 162 4.922986689109529E-6
109 161 4.929450176213463E-6
110 194 8.507501859794002E-5
110 193 8.498760456908123E-5
110 192 5.572543283689478E-4
110 191 1.414417722755559E-4
110 190 1.554361405255354E-4
110 189 8.490106548783758E-5
110 188 8.487364187250184E-5
110 187 8.48350569574256E-5
110 186 8.501782775275703E-5
110 185 8.501942809482759E-5
110 184 8.462919910113008E-5
110 183 8.475039438300547E-5
110 182 8.475046420796683E-5
111 12 5.483266804980251E-4
111 11 5.484036362947159E-4
111 10 5.496941213708261E-4
111 9 5.495774467850664E-4
111 8 5.484283079705451E-4
111 7 5.495471953779747E-4
111 6 5.50464090988879E-4
111 5 5.504643981007084E-4
111 4 5.505358087080246E-4
111 3 5.505304149326697E-4
111 2 1.4276651999326121E-2
111 1 5.499502692592708E-4
112 24 5.42883506958078E-4
112 23 5.429629230205941E-4
112 22 5.44242977475853E-4
112 21 5.441252798301495E-4
112 20 5.429814751682365E-4
112 19 5.440926747865114E-4
112 18 5.450003809717059E-4
112 17 5.450007533198457E-4
112 16 5.450681789274074E-4
112 15 5.450651854892765E-4
112 14 1.4135932163084381E-2
112 13 5.444914271477993E-4
113 38 1.758765270836687E-2
113 37 2.4511186960986526E-3
113 36 2.4511513895693732E-3
113 35 2.4551904739047756E-3
113 34 3.0320011013088423E-3
113 33 1.2855817040252412E-1
113 32 2.1154600581415873E-2
113 31 2.036537190891434E-2
113 30 2.463378528154188E-3
113 29 2.49500020031105E-3
113 28 1.7320135891345973E-2
113 27 1.3409467097539053E-2
113 26 3.7912888768353394E-3
113 25 3.7803240259380194E-3
114 80 1.4574462673064895E-1
114 79 2.7759425535140554E-2
114 78 2.7528407498371077E-1
114 77 9.215442075828148E-2
114 76 4.895892737328823E-2
114 75 5.27087964537633E-2
114 74 1.4069044822226697E-2
114 73 1.0676155571750179E-1
114 72 1.0342851421453034E-1
114 71 5.031355152893627E-2
114 70 1.4030728090035003E-2
114 69 1.403788542290032E-2
114 68 1.4183718382703694E-1
114 67 6.509241259640922E-2
115 94 1.393527808295501E-1
115 93 2.7425007252357757E-2
115 92 5.43233510611934E-1
115 91 1.7451915316964445E-1
115 90 9.595269541878543E-2
115 89 1.0271093936544001E-1
115 88 2.7451883370352096E-2
115 87 2.0368048411774806E-1
115 86 2.044287890540498E-1
115 85 9.819449230969415E-2
115 84 2.7377070112089577E-2
115 83 2.7391544354694985E-2
115 82 2.7825225180212126E-1
115 81 1.2734923856250754E-1
116 102 1.5711113772439524E-2
116 101 1.5714959164629175E-2
116 100 1.5715043059666974E-2
116 99 1.5744639317696322E-2
116 98 4.5126125744355594E-2
116 97 9.168495311474721E-2
116 96 2.7915589390881568E-2
116 95 2.7668822578835607E-2
117 110 2.998410553822603E-1
117 109 6.553242515348941E-2
117 108 3.288980936160078E-1
117 107 4.3989562717278136E-2
117 106 1.5723950511564645E-2
117 105 9.031463308457852E-2
117 104 2.764889690104285E-2
117 103 2.7621486275442395E-2
118 138 1.7400755388096326E-1
118 137 2.7375543332161113E-2
118 136 5.449211518864999E-1
118 135 1.00762239685031E-1
118 134 9.574042171920688E-2
118 133 1.0611160966808021E-1
118 132 2.7440054099462367E-2
118 131 2.2651859726054802E-1
118 130 1.7866844205763563E-1
118 129 1.0244691201823254E-1
118 128 1.0301781883806369E-1
118 127 2.7350529260989274E-2
118 126 3.601195815576732E-1
118 125 1.5028256665405101E-1
118 124 1.4936781632539453E-1
119 148 3.528543559128227E-2
119 147 1.5507782792272972E-2
119 146 1.5222254149205633E-1
119 145 1.4650273249420492E-1
119 144 4.710890731156526E-2
119 143 4.6287094057608544E-2
119 142 2.8635713883468906E-2
119 141 3.421745706504563E-1
119 140 1.1221157677808495E-1
119 139 1.12037746291082E-1
120 160 2.49786628392504E-2
120 159 3.688560592034121E-3
120 158 3.532000731901665E-3
120 157 3.403097295251105E-2
120 156 1.2132104915127824E-2
120 155 3.523822046226326E-3
120 154 3.5281698734469006E-3
120 153 3.523655639540842E-3
120 152 3.5222586580546064E-3
120 151 3.525813265679727E-3
120 150 3.513793974505988E-3
120 149 3.51837836987185E-3
121 172 2.488674283052273E-2
121 171 3.6620052120732863E-3
121 170 3.6624020630199876E-3
121 169 3.563563398483563E-2
121 168 1.2483904971040797E-2
121 167 3.653872903602654E-3
121 166 3.6584071841257526E-3
121 165 3.653889529213253E-3
121 164 3.652281787693022E-3
121 163 3.6559823930109136E-3
121 162 3.6434754865455566E-3
121 161 3.6482590779521483E-3
122 181 2.8131745960959745E-2
122 180 4.84545786259603E-3
122 179 2.242201018708475E-2
122 178 9.94360399416269E-3
122 177 9.939758200110659E-3
122 176 4.818521231235261E-3
122 175 4.831997032165156E-3
122 174 4.8329209132475575E-3
122 173 4.832983563739538E-3
123 208 2.0936748589201835E-2
123 207 1.6873627385727945E-3
123 206 6.538452442412497E-3
123 205 2.615324039609938E-3
123 204 2.595811968797349E-3
123 203 1.0073339002315378E-2
123 202 1.5946228119388707E-3
123 201 4.892672803142239E-3
123 200 8.24939785225177E-3
124 12 2.5016037994417665E-3
124 11 2.5019548910815456E-3
124 10 2.507842407564581E-3
124 9 2.5073101088503007E-3
124 8 2.5020674494526554E-3
124 7 2.507172094346155E-3
124 6 3.0447188345825542E-2
124 5 2.511356603139279E-3
124 4 2.5116823962347753E-3
124 3 2.511657788479215E-3
124 2 2.5600055234561474E-2
124 1 5.803253299465863E-3
125 24 2.520571104567161E-3
125 23 2.5209398279301865E-3
125 22 2.5268830334813676E-3
125 21 2.5263365713379545E-3
125 20 2.521025964286653E-3
125 19 2.5261851883436218E-3
125 18 3.0992529260753413E-2
125 17 2.5304013350536682E-3
125 16 2.5307143875519483E-3
125 15 2.530700489222823E-3
125 14 2.5611842928754798E-2
125 13 5.887035319533156E-3
126 38 3.239630925767676E-3
126 37 3.240473830375176E-3
126 36 3.240517052409451E-3
126 35 3.245856878305431E-3
126 34 3.2450975679608274E-3
126 33 5.722141438661324E-3
126 32 3.248044131727629E-3
126 31 3.404055511334585E-3
126 30 2.0339662812888158E-2
126 29 3.256697028773682E-3
126 28 3.2518831677208625E-3
126 27 2.4465852152364038E-2
126 26 5.14442337369758E-3
126 25 5.151145849021634E-3
127 66 1.4903207967059844E-3
127 65 1.4911243265873062E-3
127 64 3.6905734266375677E-3
127 63 1.887980989239616E-2
127 62 3.688729291423958E-3
127 61 3.7008722713983053E-3
127 60 1.8494146241325768E-2
127 59 6.400429904099285E-3
127 58 6.422797682696876E-3
128 80 4.9752318086132147E-1
128 79 4.5686529860584063E-1
128 78 4.563323008158372E-2
128 77 1.726423239370516E-1
128 76 2.0054006692604018E-1
128 75 2.8823030273749942E-2
128 74 1.0484873815126934E-1
128 73 1.248155293568525E-1
128 72 7.723278611527032E-2
128 71 8.031182082620666E-2
128 70 3.104515530828334E-1
128 69 2.8756310081683646E-2
128 68 1.0602996269520142E-1
128 67 1.0359017334309208E-1
129 94 5.002378916455613E-1
129 93 4.593166392814806E-1
129 92 8.968084916179803E-2
129 91 3.453122700781573E-1
129 90 3.94676647545051E-1
129 89 5.69250600139777E-2
129 88 2.0672546721617982E-1
129 87 2.4145732198415995E-1
129 86 1.5541409418749835E-1
129 85 1.584765992942189E-1
129 84 6.125525922424295E-1
129 83 5.6793682615293196E-2
129 82 2.1036638959415369E-1
129 81 2.049732801006682E-1
130 102 5.833444406927094E-1
130 101 5.210972809586178E-1
130 100 5.388738061185594E-1
130 99 5.827140116826828E-1
130 98 8.951017481677205E-2
130 97 4.132596352065447E-1
130 96 3.8157292335323256E-1
130 95 3.8209682286080676E-1
131 110 2.9945480449287232E-2
131 109 2.995237205495852E-2
131 108 2.995122699976922E-2
131 107 2.1196370296327438E-1
131 106 2.9990215649238778E-2
131 105 2.994312833050385E-2
131 104 4.837711209517629E-2
131 103 5.050005587320344E-2
132 123 5.223178265237467E-1
132 122 3.8834904267422654E-1
132 121 3.0309677806060054E-1
132 120 3.0586401574829486E-1
132 119 3.805817527586488E-1
132 118 5.5133681713713016E-2
132 117 2.231956418672849E-1
132 116 8.267755802858427E-2
132 115 1.7545111278320674E-1
132 114 1.7527928574511176E-1
132 113 1.6626506005873137E-1
132 112 1.442656707655858E-1
132 111 1.4082255189301943E-1
133 148 3.3885788504891534E-1
133 147 1.2091850455639531E-1
133 146 1.3198783852194126E-1
133 145 2.511409097838395E-1
133 144 1.3627711928862685E-1
133 143 1.3544582932990779E-1
133 142 4.1202141138135656E-1
133 141 1.2283599102636454E-1
133 140 1.6087731287024917E-1
133 139 1.6250887170309988E-1
134 160 3.705367743220417E-2
134 159 1.978254097295906E-3
134 158 1.6280735809864267E-2
134 157 2.8954186924839086E-3
134 156 5.040283793761536E-3
134 155 1.8899012845671017E-3
134 154 1.8922331174864285E-3
134 153 1.8898120370953134E-3
134 152 1.8890628059846843E-3
134 151 1.890969218234997E-3
134 150 1.884523014785773E-3
134 149 1.8869817242714536E-3
135 172 3.731079546581354E-2
135 171 1.954852786235153E-3
135 170 1.655556715253145E-2
135 169 3.0144375512192274E-3
135 168 5.318263837262436E-3
135 167 1.9505115947425992E-3
135 166 1.9529320858126086E-3
135 165 1.9505204698313339E-3
135 164 1.949662224742002E-3
135 163 1.9516376830489934E-3
135 162 1.9449612422644804E-3
135 161 1.9475148205495565E-3
136 181 2.3735894994827735E-3
136 180 9.493366427394594E-5
136 179 9.476867901550059E-5
136 178 1.4478598951025838E-4
136 177 1.4179069422946372E-4
136 176 9.440591371026561E-5
136 175 9.466993564536006E-5
136 174 9.468803660072752E-5
136 173 9.468926406796403E-5
137 194 8.956497597663353E-2
137 193 6.552053373164487E-3
137 192 2.681843972267076E-2
137 191 2.517027407688134E-2
137 190 2.5611486870690932E-2
137 189 6.545381709901967E-3
137 188 6.543267507574747E-3
137 187 6.54029283351186E-3
137 186 6.554383406038749E-3
137 185 6.5545067831678586E-3
137 184 6.524422381949277E-3
137 183 6.533765838085612E-3
137 182 6.533771221186781E-3
138 208 4.325620892557041E-2
138 207 4.8646686972836466E-3
138 206 5.4202161411870545E-3
138 205 4.731836574072945E-3
138 204 4.719443315892345E-3
138 203 8.917665621394891E-2
138 202 1.1261901537724715E-2
138 201 3.7422881438001446E-2
138 200 3.2730626669429094E-2
139 12 2.2568235758937114E-3
139 11 2.257140313456282E-3
139 10 2.2624517404717603E-3
139 9 2.2619715268231903E-3
139 8 2.2572418580676396E-3
139 7 2.2618470169440312E-3
139 6 2.2656208103867337E-3
139 5 3.590983938146875E-2
139 4 2.265915988872723E-3
139 3 2.265893788969241E-3
139 2 1.808133759413397E-2
139 1 4.4845922844992565E-3
140 24 2.294427642200711E-3
140 23 2.2947632840220893E-3
140 22 2.3001732703046437E-3
140 21 2.2996758362727326E-3
140 20 2.2948416922990537E-3
140 19 2.299538035229895E-3
140 18 2.303374339217055E-3
140 17 3.6882036752031847E-2
140 16 2.303660878597332E-3
140 15 2.3036482272142914E-3
140 14 1.7952424961551403E-2
140 13 4.630089415222E-3
141 38 2.297031306224591E-3
141 37 2.297628960190723E-3
141 36 2.297659606387195E-3
141 35 2.3014457621357695E-3
141 34 2.7348238822204663E-3
141 33 2.2975949615233193E-3
141 32 2.302996614594139E-3
141 31 2.3029931285786743E-3
141 30 2.309121078145968E-3
141 29 1.775031861166224E-2
141 28 1.5625312256237023E-2
141 27 2.3057970064427127E-3
141 26 3.45187336609664E-3
141 25 3.4595849696656762E-3
142 57 5.60496388806103E-3
142 56 5.608177301242336E-3
142 55 5.6081350253765075E-3
142 54 2.4849989783163832E-2
142 53 5.621708785758062E-3
142 52 5.604799022657993E-3
142 51 2.934991785270629E-2
142 50 1.0278735126877247E-2
142 49 1.0231928127438263E-2
143 80 4.373691346376366E-2
143 79 4.391158501837861E-2
143 78 2.2197660662003196E-2
143 77 2.221341299850626E-2
143 76 2.2257449875984568E-2
143 75 1.5483235096219683E-1
143 74 7.542572585693166E-2
143 73 6.435259051021602E-2
143 72 9.836260049384955E-2
143 71 6.193489129424403E-2
143 70 2.2194677934361133E-2
143 69 3.015946453010386E-1
143 68 7.256228296629258E-2
143 67 8.413574492154255E-2
144 94 4.4033906183203575E-2
144 93 4.420909678777738E-2
144 92 4.413766780044845E-2
144 91 4.4169619438717785E-2
144 90 4.425747980600111E-2
144 89 3.067219970861999E-1
144 88 1.5076329326543356E-1
144 87 1.385229239953381E-1
144 86 1.9298593503859332E-1
144 85 1.2335953412527814E-1
144 84 4.41318221437146E-2
144 83 5.953543306245813E-1
144 82 1.4336002616858787E-1
144 81 1.661177376893232E-1
145 102 2.629861439733503E-2
145 101 2.6305051145732814E-2
145 100 2.6305191576467442E-2
145 99 2.6354732340336345E-2
145 98 1.966263777553399E-1
145 97 2.6308531291038852E-2
145 96 4.453488680785965E-2
145 95 4.3425081060921834E-2
146 110 8.844468691007061E-2
146 109 8.84650414309118E-2
146 108 8.84616594832458E-2
146 107 8.874108366546224E-2
146 106 5.792106570634872E-1
146 105 3.972208886039847E-1
146 104 3.8267878786062454E-1
146 103 3.800620458196249E-1
147 123 2.0413085920963848E-2
147 122 2.0458531923926618E-2
147 121 2.049081131872398E-2
147 120 2.0490943280508326E-2
147 119 2.049500701911607E-2
147 118 9.585093996621658E-2
147 117 3.66289236035702E-2
147 116 1.1189241310978541E-1
147 115 4.257145769001692E-2
147 114 4.2685074412596814E-2
147 113 8.136030413697853E-2
147 112 6.267924888249819E-2
147 111 6.422723756646596E-2
148 138 1.0673145809885873E-1
148 137 2.594398065749678E-1
148 136 5.2441245773773786E-2
148 135 1.4546034936067734E-1
148 134 1.4502474856121397E-1
148 133 2.1178434051565542E-1
148 132 1.263960796716264E-1
148 131 1.5428998722941728E-1
148 130 9.9244791371316E-2
148 129 1.0067201065532111E-1
148 128 1.004582469152349E-1
148 127 4.095358145817498E-1
148 126 7.655107853288756E-2
148 125 1.2084882417761508E-1
148 124 1.2010797606511273E-1
149 24 1.818239612570582E-5
149 23 1.8185055949201845E-5
149 22 1.8227927867154194E-5
149 21 1.822398590688129E-5
149 20 1.818567730257341E-5
149 19 1.8222893890248764E-5
149 18 1.8253295022744827E-5
149 17 1.8253307493525914E-5
149 16 1.8255565729574705E-5
149 15 1.8255465472563435E-5
149 14 2.3678362058863835E-4
149 13 1.8236249008420657E-5
150 38 1.3680702462327818E-5
150 37 1.368426198111362E-5
150 36 1.3684444504309713E-5
150 35 1.3706994162266884E-5
150 34 1.3703787655371772E-5
150 33 1.3684059491207799E-5
150 32 1.3716230758646057E-5
150 31 1.3716209996569274E-5
150 30 1.37527069544066E-5
150 29 3.0397724221813857E-5
150 28 1.0674915546870451E-4
150 27 1.373290938533889E-5
150 26 4.611595913849744E-5
150 25 1.3755361613503623E-5
151 94 6.664718783075925E-3
151 93 6.691234625392155E-3
151 92 6.680423544687059E-3
151 91 6.685259560888703E-3
151 90 6.698557600760181E-3
151 89 2.914660645976912E-2
151 88 2.9369874179707687E-2
151 87 7.193455748192586E-3
151 86 9.39961221168344E-3
151 85 1.995403088853402E-2
151 84 6.67953877970456E-3
151 83 6.683070248353098E-3
151 82 7.543654759863549E-3
151 81 9.214786979095698E-3
152 102 2.322129709957917E-4
152 101 2.322698065555067E-4
152 100 2.3227104653863337E-4
152 99 2.3270848433629027E-4
152 98 9.178655706197302E-4
152 97 2.323005357364743E-4
152 96 4.88381647893929E-4
152 95 2.3293605744502342E-4
153 110 4.5192111898354545E-5
153 109 4.520251233975617E-5
153 108 4.520078428392042E-5
153 107 4.534356017415191E-5
153 106 4.525962386115071E-5
153 105 4.904519560530222E-4
153 104 1.1487045710320926E-4
153 103 4.531098505430237E-5
154 123 1.0903580858120465E-2
154 122 1.0927855687017063E-2
154 121 1.0945097616659008E-2
154 120 1.094516810360015E-2
154 119 1.0947338735843963E-2
154 118 7.907174686259716E-2
154 117 1.2338744898177044E-2
154 116 2.3158094421481177E-2
154 115 9.29975564411607E-2
154 114 1.0958463230812463E-2
154 113 1.6852659768759447E-2
154 112 3.180615564291141E-2
154 111 1.091522789337276E-2
155 138 3.732330567108186E-2
155 137 9.500174955030572E-3
155 136 2.904149410007786E-3
155 135 5.423303668038136E-2
155 134 2.913290575345599E-3
155 133 8.00297827353697E-3
155 132 6.4467066399563205E-3
155 131 5.730184695574511E-3
155 130 3.741006812753099E-3
155 129 1.015465034724253E-2
155 128 2.920721189704802E-3
155 127 3.962198934108364E-3
155 126 4.607497710784238E-3
155 125 6.601625296842148E-3
155 124 2.9150011662281974E-3
156 172 2.4074949051136976E-1
156 171 2.384925832769975E-1
156 170 2.119145021450009E-1
156 169 2.1153981438499067E-1
156 168 3.8268769888123316E-1
156 167 1.6014910513500308E-1
156 166 2.1016980776857236E-1
156 165 1.0599090810674132E-1
156 164 1.0594427123324862E-1
156 163 3.968948462324751E-1
156 162 1.0568882074734345E-1
156 161 1.0582758170142885E-1
157 181 2.7520101715080164E-1
157 180 2.842148192841899E-1
157 179 2.0758676104033252E-1
157 178 5.302564161960582E-1
157 177 7.928578041704747E-2
157 176 1.117995356572558E-1
157 175 2.0287447731457342E-1
157 174 4.698450785411537E-1
157 173 7.90905933636905E-2
158 194 2.736846650281068E-1
158 193 2.2717099157833323E-1
158 192 2.070349441149381E-1
158 191 5.309897909036595E-1
158 190 7.928502947096114E-2
158 189 2.3566274078585514E-1
158 188 2.1415046319049402E-1
158 187 2.11428873785627E-1
158 186 6.072368209515977E-1
158 185 7.92183648995776E-2
158 184 1.7885498936586738E-1
158 183 4.264604342558295E-1
158 182 7.89677530122525E-2
159 199 2.0420456725342562E-1
159 198 1.72776300540567E-1
159 197 2.68508075972674E-1
159 196 4.896208478422568E-1
159 195 7.706663634560774E-2
160 208 2.0579577765036883E-1
160 207 2.4977766091431747E-1
160 206 2.3648963662331363E-1
160 205 4.704163625613135E-1
160 204 7.540575494163114E-2
160 203 1.855443349062001E-1
160 202 1.6632103251311783E-1
160 201 4.574646880114063E-1
160 200 7.505160577257224E-2
161 12 1.7016893651326138E-5
161 11 1.7019281914846255E-5
161 10 1.7059331119234496E-5
161 9 1.7055710213872235E-5
161 8 1.7020047581188453E-5
161 7 1.7054771384893837E-5
161 6 1.7083226529709977E-5
161 5 1.708323606068763E-5
161 4 1.708545223355227E-5
161 3 1.708528484191357E-5
161 2 2.283268898397461E-4
161 1 1.7067280470472914E-5
162 38 1.2850639207758193E-5
162 37 1.2853982756219652E-5
162 36 1.2854154204999165E-5
162 35 1.287533568449292E-5
162 34 1.287232372927061E-5
162 33 1.2853792552191016E-5
162 32 1.288401185941181E-5
162 31 1.7757914602967135E-4
162 30 1.2918274897635253E-5
162 29 3.7991352446932814E-5
162 28 1.0630932223801176E-4
162 27 1.289967852672664E-5
162 26 1.2920745070172305E-5
162 25 2.914792339992575E-5
163 80 6.829008894214936E-3
163 79 6.856281820115847E-3
163 78 3.4659058009929426E-3
163 77 3.468365344604158E-3
163 76 3.475241189380493E-3
163 75 1.4876003205741374E-2
163 74 1.5611364559576252E-2
163 73 3.7044605250379685E-3
163 72 4.900236481307178E-3
163 71 1.0299779328136536E-2
163 70 3.4654400828618825E-3
163 69 3.46720786768664E-3
163 68 3.8242421525998068E-3
163 67 4.719290987843555E-3
164 102 1.971186643724708E-4
164 101 1.9716691038375883E-4
164 100 1.9716796296844746E-4
164 99 1.9753929086649898E-4
164 98 7.916180577009421E-4
164 97 1.9719299546885815E-4
164 96 1.9773340897016517E-4
164 95 4.889084514572606E-4
165 110 6.915316804794393E-5
165 109 6.9169082849041E-5
165 108 6.916643857041392E-5
165 107 6.938491486451986E-5
165 106 6.925647514983353E-5
165 105 2.9262755396776636E-4
165 104 6.933789601432508E-5
165 103 4.548111905464457E-4
166 123 1.0873655069154041E-2
166 122 1.0897863273753887E-2
166 121 1.0915057881478878E-2
166 120 1.091512817496272E-2
166 119 1.0917292849724923E-2
166 118 7.922926012006547E-2
166 117 1.277988894209957E-2
166 116 2.3369643925081226E-2
166 115 1.0928285663481759E-2
166 114 9.26714608568483E-2
166 113 1.682577679136869E-2
166 112 1.0885208036666016E-2
166 111 3.108037513655509E-2
167 138 3.857571890668617E-2
167 137 9.505683977392402E-3
167 136 2.9107055690820124E-3
167 135 2.919827822389511E-3
167 134 5.3734040280463545E-2
167 133 8.047973325463474E-3
167 132 6.702467008944752E-3
167 131 5.821549301359509E-3
167 130 3.721480789337762E-3
167 129 2.9273165188739196E-3
167 128 1.0094783104512204E-2
167 127 3.7583686595411988E-3
167 126 4.735083590172672E-3
167 125 2.921597794403733E-3
167 124 6.8997919971106846E-3
168 160 2.4079425834272392E-1
168 159 2.3918455139318442E-1
168 158 2.0250437768651425E-1
168 157 2.0274299243337537E-1
168 156 3.6643699014099995E-1
168 155 1.5212949186768185E-1
168 154 2.0262183352827481E-1
168 153 1.0146669056980923E-1
168 152 1.0142646328806097E-1
168 151 3.752149511089147E-1
168 150 1.0118271545505453E-1
168 149 1.013147270571015E-1
169 181 2.725096002469141E-1
169 180 2.829568972562972E-1
169 179 2.0692091363069046E-1
169 178 7.915000421606903E-2
169 177 5.310240863086289E-1
169 176 1.1359908539852871E-1
169 175 2.0380120959371062E-1
169 174 7.895427101200797E-2
169 173 4.678370665505894E-1
170 194 2.739951400294911E-1
170 193 2.2710926956198876E-1
170 192 2.0703961451739475E-1
170 191 7.915006311791305E-2
170 190 5.286992978566466E-1
170 189 2.336249625367557E-1
170 188 1.9052288175744503E-1
170 187 1.9397029029758447E-1
170 186 7.908204449675979E-2
170 185 6.06324804002872E-1
170 184 1.6567500470637653E-1
170 183 7.883328281693759E-2
170 182 4.49010028288068E-1
171 199 2.074021877306237E-1
171 198 1.72892583993193E-1
171 197 2.6883539973914866E-1
171 196 7.713080344522172E-2
171 195 4.906559999519432E-1
172 208 2.0639052017407014E-1
172 207 2.504283804182905E-1
172 206 2.371347685215428E-1
172 205 7.544526645686372E-2
172 204 4.70242206584991E-1
172 203 1.8668381601877596E-1
172 202 1.681812599545001E-1
172 201 7.509061923707665E-2
172 200 4.3428555215027476E-1
173 80 5.743918172405532E-4
173 79 5.766857585301834E-4
173 78 2.915193056935933E-4
173 77 2.91726179303851E-4
173 76 2.923045105137413E-4
173 75 5.754928635739181E-4
173 74 9.818388964320903E-3
173 73 2.9225883706881134E-4
173 72 2.922668431050505E-4
173 71 2.919748926613083E-4
173 70 2.9148013387704345E-4
173 69 2.9162882326282574E-4
173 68 2.91406950470052E-4
173 67 2.917171126010413E-4
174 94 5.313978673124125E-4
174 93 5.335120543494736E-4
174 92 5.326500547037244E-4
174 91 5.330356446707561E-4
174 90 5.340959369737236E-4
174 89 1.0144434761563848E-3
174 88 1.7869574774071043E-2
174 87 5.340299921066433E-4
174 86 5.340253752098728E-4
174 85 5.33489396980738E-4
174 84 5.325795097580071E-4
174 83 5.328610842654085E-4
174 82 5.324524728381752E-4
174 81 5.330180734894018E-4
175 123 1.0753081427347475E-2
175 122 1.0777021196782545E-2
175 121 1.0794025140332552E-2
175 120 1.0794094654359872E-2
175 119 1.0796235325903495E-2
175 118 5.758017775418182E-2
175 117 1.9240642573897748E-2
175 116 6.322506703759134E-2
175 115 2.3719665185136664E-2
175 114 2.3752190768493907E-2
175 113 4.844855466892732E-2
175 112 3.583385306875388E-2
175 111 3.391788741447988E-2
176 138 1.0498980887837795E-4
176 137 1.0536871925596167E-4
176 136 1.0502928116432088E-4
176 135 1.0535844661398455E-4
176 134 1.0535987366797315E-4
176 133 1.0551101670646945E-4
176 132 1.0124052968926971E-3
176 131 1.0549204269314043E-4
176 130 1.0568158342880952E-4
176 129 1.1660128663209224E-4
176 128 1.1660900405676387E-4
176 127 1.0527243986487256E-4
176 126 1.0520854498646224E-4
176 125 1.0542231390798687E-4
176 124 1.0542173761000947E-4
177 160 2.3199974740013093E-1
177 159 2.139828566295291E-1
177 158 4.2058546650787737E-1
177 157 5.6917146550383144E-2
177 156 1.6825622614072136E-1
177 155 7.468521886215744E-2
177 154 4.5826936159728743E-1
177 153 5.6782622332971294E-2
177 152 5.676011040778515E-2
177 151 1.2954579852837517E-1
177 150 5.6623704646757964E-2
177 149 5.669758076216597E-2
178 172 2.3071693510743116E-1
178 171 2.1565476790189067E-1
178 170 4.39525470745942E-1
178 169 5.939580505461703E-2
178 168 1.7531734194766885E-1
178 167 7.855145238521503E-2
178 166 4.807343047055543E-1
178 165 5.925779527752755E-2
178 164 5.923172135900776E-2
178 163 1.3586048043529053E-1
178 162 5.9088903141221866E-2
178 161 5.916648213697333E-2
179 194 1.562628610997768E-1
179 193 2.0958090435403473E-1
179 192 3.006900583195438E-1
179 191 1.201579072789481E-1
179 190 1.2030402313694404E-1
179 189 1.3764435167071706E-1
179 188 4.4127526557548524E-1
179 187 4.761917067255824E-1
179 186 1.1536709926167164E-1
179 185 1.1768458158609751E-1
179 184 5.319948144509394E-1
179 183 3.670438537205165E-1
179 182 3.6334271204042606E-1
180 199 2.6198740603505677E-1
180 198 5.381877769358397E-1
180 197 7.368811533369465E-2
180 196 2.5590328113579974E-1
180 195 2.5528930286430784E-1
181 208 1.4390509851259164E-1
181 207 3.957634204173701E-1
181 206 5.781524000983575E-2
181 205 1.8231063889502833E-1
181 204 1.825311566381261E-1
181 203 1.6840181455152334E-1
181 202 4.140419658046753E-1
181 201 1.7620090079935224E-1
181 200 1.8224620284096513E-1
182 12 7.920066879105388E-5
182 11 7.921178433728213E-5
182 10 7.939818285613585E-5
182 9 7.938133030171574E-5
182 8 7.92153479304746E-5
182 7 7.937696076844526E-5
182 6 7.95093977775823E-5
182 5 7.950944213701828E-5
182 4 7.951975673242166E-5
182 3 7.951897765193806E-5
182 2 2.0581588425431104E-3
182 1 7.943518102674431E-5
183 24 7.785705624764814E-5
183 23 7.786844561712986E-5
183 22 7.805202325477365E-5
183 21 7.803514377307215E-5
183 20 7.787110625349843E-5
183 19 7.803046775568729E-5
183 18 7.816064546529026E-5
183 17 7.81606988651996E-5
183 16 7.817036863643632E-5
183 15 7.816993933571535E-5
183 14 2.118884258009879E-3
183 13 7.808765439816908E-5
184 38 3.515180834708971E-4
184 37 3.51609543337458E-4
184 36 3.5161423317003464E-4
184 35 3.521936341598491E-4
184 34 1.0741065107339894E-3
184 33 1.0274251859348222E-3
184 32 6.641742344110472E-4
184 31 1.4429137166688795E-3
184 30 3.533681990717975E-4
184 29 1.0806694103875645E-3
184 28 5.411203608252556E-3
184 27 3.528595114839176E-4
184 26 5.286480894762021E-4
184 25 5.499047174239683E-4
185 80 5.20095118720451E-3
185 79 5.2217221597629215E-3
185 78 2.639622699229991E-3
185 77 2.641495879725563E-3
185 76 2.646732500969798E-3
185 75 2.5964096623480176E-2
185 74 2.646475627599726E-3
185 73 6.151535639452556E-3
185 72 2.04612166269144E-2
185 71 7.901732417966044E-3
185 70 2.639268009800799E-3
185 69 2.640614349031786E-3
185 68 1.9791086052610426E-2
185 67 9.251585950844807E-3
186 94 5.122204982200182E-3
186 93 5.1425838734992894E-3
186 92 5.134274960062278E-3
186 91 5.137991705972842E-3
186 90 5.148211985072412E-3
186 89 5.106196409095313E-2
186 88 5.1476235327310325E-3
186 87 1.1658777149407518E-2
186 86 4.0015729052704806E-2
186 85 1.507420415187537E-2
186 84 5.133594969240618E-3
186 83 5.136309098207613E-3
186 82 3.9043741597419836E-2
186 81 1.7766807911037946E-2
187 102 3.2489076684839133E-3
187 101 3.249702858713851E-3
187 100 3.249720207403167E-3
187 99 3.2558404297542173E-3
187 98 1.3309622968903428E-2
187 97 3.250132792800925E-3
187 96 4.294314659270802E-3
187 95 4.336965791754821E-3
188 110 7.216403691105849E-4
188 109 7.218064462877007E-4
188 108 7.217788522054866E-4
188 107 7.240587378270855E-4
188 106 7.227184191442098E-4
188 105 1.4272993052428446E-2
188 104 1.706441367056954E-3
188 103 1.5583446552508522E-3
189 138 9.125100389192092E-2
189 137 7.360991402103901E-3
189 136 7.337278473905118E-3
189 135 2.5048944208774186E-2
189 134 2.564585713182351E-2
189 133 3.8603388433984635E-2
189 132 7.378337658858915E-3
189 131 4.678137498967218E-2
189 130 1.8867031678683324E-2
189 129 1.3850686361197522E-2
189 128 1.3840434537006879E-2
189 127 2.29243253320198E-2
189 126 5.056643631609235E-2
189 125 2.5376129573597393E-2
189 124 2.618644529022195E-2
190 160 2.3166861814075634E-1
190 159 2.542158421505701E-1
190 158 5.687020814573346E-2
190 157 4.1941611874911633E-1
190 156 1.6781516117045617E-1
190 155 3.170056120727051E-1
190 154 5.680852590548602E-2
190 153 7.056961779315133E-1
190 152 6.743322878628102E-1
190 151 2.3461307892011254E-1
190 150 6.521229238003788E-1
190 149 6.874914300830932E-1
191 172 2.327413222201213E-1
191 171 2.537635718726631E-1
191 170 5.9440538982694004E-2
191 169 4.3778371293247087E-1
191 168 1.7561128653220012E-1
191 167 3.2519223611204623E-1
191 166 5.937570236711824E-2
191 165 7.336637394681702E-1
191 164 7.09371099864051E-1
191 163 2.379336664843884E-1
191 162 6.776991398428983E-1
191 161 7.220165507465738E-1
192 181 1.5624213474711382E-1
192 180 1.4535201588417673E-1
192 179 3.006925008272658E-1
192 178 1.2030448245965851E-1
192 177 1.2017313472932317E-1
192 176 6.491204938063909E-2
192 175 2.501954362579538E-1
192 174 1.5386162673263554E-1
192 173 1.4019244289284813E-1
193 199 4.682528262580459E-2
193 198 3.861713528140126E-2
193 197 2.9270237101662133E-1
193 196 8.844279506743766E-2
193 195 8.817935292715694E-2
194 208 2.2873973967400651E-1
194 207 6.10419610700646E-2
194 206 3.7564618179585413E-1
194 205 1.8281893314347183E-1
194 204 1.8295965408761072E-1
194 203 1.386924244820769E-1
194 202 5.768700551615871E-2
194 201 1.0383041573027792E-1
194 200 1.0590425412799193E-1
195 160 1.289668051643397E-1
195 159 1.79551784318852E-2
195 158 7.58653480121892E-2
195 157 6.43808611662166E-2
195 156 6.1423889510263084E-2
195 155 1.7153263996488314E-2
195 154 1.717442835358333E-2
195 153 1.715245396188116E-2
195 152 1.714565373419734E-2
195 151 1.7162956856261326E-2
195 150 1.7104449340317213E-2
195 149 1.712676526403394E-2
196 172 1.2939181200168412E-1
196 171 1.8079280747639283E-2
196 170 7.952493783215141E-2
196 169 6.807168633694467E-2
196 168 6.44648999297319E-2
196 167 1.803913162729335E-2
196 166 1.80615173219656E-2
196 165 1.8039213707755887E-2
196 164 1.8031276304985935E-2
196 163 1.8049546154045075E-2
196 162 1.7987799689969556E-2
196 161 1.8011416229819534E-2
197 181 1.7071490076412094E-1
197 180 2.3078167176075994E-2
197 179 8.601926801023696E-2
197 178 9.200797445835072E-2
197 177 9.178206146882119E-2
197 176 2.294987216261547E-2
197 175 2.301405532043268E-2
197 174 2.3018455623288487E-2
197 173 2.3018754017902283E-2
198 194 7.490093101803379E-2
198 193 1.205968298547181E-2
198 192 5.033974492973824E-2
198 191 2.8950189588712785E-2
198 190 2.8916174276023533E-2
198 189 1.2047403149006904E-2
198 188 1.2043511756739275E-2
198 187 1.2038036583669035E-2
198 186 1.2063971634572934E-2
198 185 1.2064198722018653E-2
198 184 1.20088254945981E-2
198 183 1.2026023022239488E-2
198 182 1.2026032930353769E-2
199 208 1.255828022816556E-1
199 207 2.3492878129771008E-2
199 206 1.5732644281109338E-2
199 205 1.699416464462662E-2
199 204 1.70511872665514E-2
199 203 1.387202326449118E-1
199 202 1.1341465743806707E-1
199 201 7.19959195225028E-2
199 200 8.585927214075242E-2
200 80 3.360737445399507E-4
200 79 3.37415917975959E-4
200 78 1.7056647001136184E-4
200 77 1.706875107134732E-4
200 76 1.7102588937671027E-4
200 75 3.891506612288707E-3
200 74 2.003690075566359E-3
200 73 1.7099916607529313E-4
200 72 1.7100385036656794E-4
200 71 1.7083303163986684E-4
200 70 1.7054355077979693E-4
200 69 1.7063054818671205E-4
200 68 1.7050073153884054E-4
200 67 1.7068220583155738E-4
201 94 3.270436247955451E-4
201 93 3.283447805483771E-4
201 92 3.278142712895724E-4
201 91 3.280515788669261E-4
201 90 3.287041254039665E-4
201 89 7.6416062840572235E-3
201 88 3.73895586135506E-3
201 87 3.2866354027991297E-4
201 86 3.2866069885591036E-4
201 85 3.2833083629218903E-4
201 84 3.277708550920723E-4
201 83 3.279441473712008E-4
201 82 3.2769267146112393E-4
201 81 3.280407648550614E-4
202 123 1.7996245789978517E-3
202 122 1.8036311140345272E-3
202 121 1.8064768764291708E-3
202 120 1.806488510224841E-3
202 119 1.806846770798937E-3
202 118 3.951141153527467E-2
202 117 1.8036892977004264E-3
202 116 1.8036908261725901E-3
202 115 5.043333973107964E-3
202 114 5.028149673292076E-3
202 113 1.7990771643124931E-3
202 112 1.8015366319517744E-3
202 111 1.8015469099444668E-3
203 138 9.888144656377894E-2
203 137 1.5529667454770373E-2
203 136 1.5061983117293433E-3
203 135 1.672484523530714E-2
203 134 1.788582778144577E-2
203 133 2.9064386587257986E-3
203 132 4.98051926287667E-3
203 131 1.512834657572278E-3
203 130 1.5155528132418585E-3
203 129 2.0948190138755924E-3
203 128 2.0656530353175386E-3
203 127 1.5096853890490503E-3
203 126 1.5087690887857054E-3
203 125 1.5118346947303645E-3
203 124 1.5118264301870773E-3
204 160 2.8254839890209302E-2
204 159 2.028147229675378E-1
204 158 1.093564538010056E-1
204 157 1.0996881639380318E-1
204 156 9.772592067602395E-2
204 155 3.2449331638678314E-1
204 154 1.5209758983287963E-1
204 153 2.6991808054226796E-2
204 152 2.6981106935846027E-2
204 151 1.3076982566052076E-1
204 150 2.6916266004450743E-2
204 149 2.6951383261191574E-2
205 172 2.8254095337801915E-2
205 171 2.0206158335719476E-1
205 170 1.1488921739799389E-1
205 169 1.1424422340262391E-1
205 168 1.0211625857600669E-1
205 167 3.4286294804886625E-1
205 166 1.5842645629328125E-1
205 165 2.8191766817466678E-2
205 164 2.817936220761771E-2
205 163 1.3828676109050062E-1
205 162 2.8111416752100014E-2
205 161 2.8148324790070636E-2
206 181 2.8876600605783058E-2
206 180 1.9727171491511822E-1
206 179 1.1088700728020495E-1
206 178 1.0415344968789073E-1
206 177 1.044858744271879E-1
206 176 6.218754125082275E-1
206 175 2.5016039348520597E-1
206 174 2.1087169089780936E-1
206 173 2.110989505521238E-1
207 194 2.900111971107487E-2
207 193 2.440415713271753E-1
207 192 1.110920954033976E-1
207 191 1.0452556732285646E-1
207 190 1.0477228235363907E-1
207 189 2.9821845914287043E-1
207 188 2.893247264384287E-2
207 187 2.8919319479028927E-2
207 186 1.0620652884901577E-1
207 185 1.0672171499219961E-1
207 184 2.88491448445442E-2
207 183 2.8890458956912446E-2
207 182 2.889048275945867E-2
208 199 2.1509178411406135E-1
208 198 1.6603727474596246E-2
208 197 3.441375412377442E-2
208 196 2.7701596689302145E-2
208 195 2.775897136416146E-2
